Ti Ge O 
 1.0000000000000000
    24.1772636000257251    0.0000000000000000    0.0000000000000000
     0.0000000000000000   24.1772636000257251    0.0000000000000000
     0.0000000000000000    0.0000000000000000   24.1772636000257251
 Ti  Ge  O  
 148 188 672
Direct
  0.0826347103269949  0.0610025205508052  0.3404855516408498
  0.4693397196749908  0.9578585883426665  0.8806769347716772
  0.6402333986328642  0.8476363081353189  0.9420082104174170
  0.3761285680292408  0.0541815475506050  0.2862974660667298
  0.5532176504583273  0.3715393685853530  0.1427656226056783
  0.5399376723178668  0.0316511684428899  0.5937873584727721
  0.1660551076608237  0.5092243453822995  0.2253707392545913
  0.5057469452192119  0.8630833205796395  0.9603287187110152
  0.0729539831604254  0.6319327318672898  0.5159057912411525
  0.8407154305857522  0.6839433696340326  0.1700907938922008
  0.2717203756169727  0.0146391646933782  0.3410354950727988
  0.4534952190680141  0.0660694690523540  0.9730458943204866
  0.6922472708969115  0.0371462662679001  0.7801672977386005
  0.8262731634504694  0.3509701352084105  0.9381746210999398
  0.5759468180230956  0.5614876683896868  0.4216037462118145
  0.8273319485315466  0.0272663931731576  0.0649115042254221
  0.9694914973435154  0.5729443367325274  0.8211324427710692
  0.3212623622062073  0.0065727598465300  0.5692574437013376
  0.4711171153889218  0.2774874843109584  0.9325223765053541
  0.7601953024554137  0.1604888829442487  0.9621002765517624
  0.9204929654690762  0.5561432138251899  0.1627606439596155
  0.6209424228126383  0.7354891864710602  0.4780017823467134
  0.4593469374780757  0.2416208142674854  0.3626415820612901
  0.5495045658879885  0.8321489039197806  0.8486815241057526
  0.5708574154045881  0.4284794985794741  0.4043212354373484
  0.4709513276795199  0.3208472420887326  0.4556811081244544
  0.2395202843838136  0.3241479282527432  0.2192425107700810
  0.3399668881645408  0.7249430685645352  0.4136285408762366
  0.1353866593753569  0.9784495559636920  0.4425217925114887
  0.5098227668287275  0.9934498922192743  0.2854535778309588
  0.7586225478636281  0.8487172613564588  0.8840460976103302
  0.4673256928716708  0.3671260153485824  0.8307805537796060
  0.4397944407172514  0.2536815644270371  0.7815817986329983
  0.1621362084769394  0.8857226716765734  0.6321349668390014
  0.9841156852296337  0.9143476572609944  0.6167414813805620
  0.0550315399139111  0.9076923240511122  0.3946075666907612
  0.1497548979397093  0.5264856741439298  0.6359759323881367
  0.9764843227355635  0.2443287393553509  0.7587301540666376
  0.5297232876105019  0.7954361761606373  0.6351451793670292
  0.7340959070345873  0.2538823793755418  0.1413947874248918
  0.5079391060448158  0.0985084002998906  0.8558617925611074
  0.5939108216015915  0.5273919645106249  0.6971384619427935
  0.4312677930363394  0.7307192496290091  0.6255643222353733
  0.6679237722766310  0.6355842426535753  0.9078679335876950
  0.0093501514342420  0.7877607140569760  0.2422389582584533
  0.8986900080409882  0.9648406057803068  0.1910620318944990
  0.9151562815871281  0.3162807827386991  0.1658799714653099
  0.0991140895039816  0.6518168434920071  0.3125196934949503
  0.1896351649646747  0.6682715990721358  0.5914099240637608
  0.3686694622391817  0.4228254395107908  0.4855180440708490
  0.7683551502529736  0.3413236020034369  0.0625980201670813
  0.6490846005067240  0.9571154428644052  0.4549159522864865
  0.5189925272419948  0.6681681740485689  0.5534717557221787
  0.8512949190376387  0.3879270675140462  0.7639847921632998
  0.3719211970476444  0.5263664710847310  0.7004904267226078
  0.4598884396609618  0.3987334046732299  0.9492945861623961
  0.9791339282592245  0.5376197211031877  0.5749346570373106
  0.9301444687552739  0.7754007531742103  0.8529777254279565
  0.0263707702377405  0.3677654202425641  0.2123934824502729
  0.9557409392903342  0.0508013252951013  0.6997791528763228
  0.1501612612474083  0.0342115984814142  0.7722702331244895
  0.6902711508241970  0.4026078985480829  0.9498128157427250
  0.3352585251065432  0.5866776572817809  0.3503300203028252
  0.9567413456395734  0.9363571491755037  0.0232456985409488
  0.4177217972151255  0.3402811866343279  0.1508957288060722
  0.1235473243620818  0.0313430505254981  0.0006966361743417
  0.8507141295460292  0.2364382620711162  0.0453012006865516
  0.4467928278668598  0.3999321014852728  0.5770698197091945
  0.0728441778936998  0.1613102085890660  0.8340394281491921
  0.5051885605381997  0.1550733680517748  0.0948871438969294
  0.7509066150985712  0.7898994267868770  0.2250223207827503
  0.0990389761931016  0.0378101690275185  0.2067492846538595
  0.9416965942136875  0.4398066292497770  0.9793333626296116
  0.5726100001574880  0.0221030384085799  0.7824727054149523
  0.8308670963050468  0.3626707714272091  0.5612375076347433
  0.3219728471507107  0.7807961313487090  0.2775346606374977
  0.6076490333418908  0.9036078639670881  0.0632208581236496
  0.5754765931161766  0.3817736730627030  0.5357643424481461
  0.3962146779551352  0.6332601380049997  0.4573370918541981
  0.6571608641605240  0.7586898411855981  0.8315214903328789
  0.7267726895764076  0.1537322547456098  0.1986133800253710
  0.6446567709222611  0.3211221940821626  0.0371919190278737
  0.8281229014577726  0.8751011347597279  0.7099114917984017
  0.9659950846474914  0.8143749467804706  0.3735190387160846
  0.6734531059736444  0.7955022072397567  0.0897275684649491
  0.5041954909755294  0.2273520266339752  0.2530864366455472
  0.8346301578032497  0.0516313337901524  0.7484063486821656
  0.0176932179726000  0.7636125883027438  0.5339506178071728
  0.8131583024528966  0.6895823606786874  0.4308715671165339
  0.8103716646897725  0.1080439251629217  0.5211883170157942
  0.1404831719711710  0.6240613460061697  0.8516702785053210
  0.3660305857797502  0.1854927600447925  0.9789767001341531
  0.9964959208881863  0.0137561013208559  0.1199593793368483
  0.8328272016715950  0.4875354631518299  0.6697383252644751
  0.1238200674305233  0.3860900308254266  0.8334802545663984
  0.1114457781191494  0.3199597473069840  0.3898252440907392
  0.8191421224662860  0.4736780877974209  0.9681631445236677
  0.2252689512022211  0.0026298133338859  0.6838679506237122
  0.3985310908113402  0.6802955666861207  0.0881548335957081
  0.1682624745682679  0.4883405374199465  0.9028565139102981
  0.7516404515358097  0.3981624764538905  0.2313559398460986
  0.2908681657638393  0.5975334980277597  0.7709776964455261
  0.6244529962956420  0.5623996782942984  0.5577445661065583
  0.7506312883767948  0.3282197067406282  0.6816153204765490
  0.7709050385914413  0.6111872183872502  0.9753185625729023
  0.7722061742998241  0.8652531949299135  0.4974912853002774
  0.8750908001463891  0.0528782620848674  0.6034781885127821
  0.1643016353934196  0.2903979014118312  0.5260340673190563
  0.8079555740934631  0.5315039178217374  0.2053521001535677
  0.7557286983483855  0.1502120172157816  0.8420227986182095
  0.3088430759094657  0.7217414684642928  0.5490241641480869
  0.8631271046285178  0.7381122060046816  0.6676978308063826
  0.2621101121714079  0.2108219506562488  0.9220033968201159
  0.6186219865573472  0.8413919927536471  0.3847276368937032
  0.8760590981931174  0.7939965881895847  0.9644952245803251
  0.1484614737462416  0.9582916165305835  0.2881734942259045
  0.4031608003617129  0.4816031978698676  0.8197090272865394
  0.6617154308161999  0.3501088122432663  0.3471049898196695
  0.4602925940436723  0.4599320659294839  0.1336860829724086
  0.7911170966867671  0.2127543655702630  0.3662016591310888
  0.3523470054878263  0.4362586223772368  0.0386648134460179
  0.2537643005013818  0.1369487736543632  0.3105031816510183
  0.0261663559248573  0.6762365881296420  0.1879121048609509
  0.2830312549105748  0.9724415955557857  0.9228550951835246
  0.5324212922584639  0.5388868945898728  0.9750513615394764
  0.4217026350501373  0.3426229626828111  0.3016063615316379
  0.6264722692958097  0.1480674863352413  0.6390418413819449
  0.5848214108347796  0.0998031754876593  0.9922049263177409
  0.3197128999395233  0.5413728424389423  0.1094591656527397
  0.4232036390248869  0.0644104480507512  0.6639426583259957
  0.9529779685806580  0.4053105971616453  0.6378855085955737
  0.3698265444822454  0.2891429953478498  0.6603866046552832
  0.7785523369014997  0.0290818016263711  0.1755274907975105
  0.6822102313100490  0.5215475039969538  0.0069982897695447
  0.2742496144513071  0.7200605554382506  0.1565612959794945
  0.1705352019883172  0.1673983707243436  0.6109550445929272
  0.0116569594112561  0.0852534796522681  0.5853284380098099
  0.2446500984960832  0.5059785273371987  0.4339383044572129
  0.4901335928342421  0.5852963297072991  0.7685641303349178
  0.5704142892738668  0.3212023859482616  0.7399791420708236
  0.7114122196575278  0.9256571165313897  0.2350768937117088
  0.9361284465490197  0.1999000393860615  0.5658619315431794
  0.5713838101183566  0.1507080293496865  0.4884461319234129
  0.8988540996115597  0.3747971779375339  0.2892558871927959
  0.5335386138517353  0.8504136368574201  0.4866491714452983
  0.9826588203095643  0.1374462255340195  0.2366606929284366
  0.4107215955914195  0.7867278049543351  0.8473613758644334
  0.2294180420647023  0.6708372654462353  0.9542131521000995
  0.3310767934328486  0.4446688676002746  0.3473994079645603
  0.3808302254220949  0.5873072009034928  0.8660374421909960
  0.0338337046667585  0.9881096582793090  0.7932247266864734
  0.5543701570710577  0.2253068184877376  0.8266091567192503
  0.9659608463101702  0.5724561643100772  0.0276272491746489
  0.3970360824901307  0.9030827709412592  0.7694375234973204
  0.6826251147569892  0.1356239708925326  0.3289532867847878
  0.2046208868147529  0.2431993278422766  0.1152745649970313
  0.7543534847627110  0.6120249531891248  0.1155257907693798
  0.5592277014559548  0.1279759527095985  0.3131505190820574
  0.5197850579717841  0.7001208262379310  0.8411277106568131
  0.7149113935097874  0.7568161205641345  0.5749485811537558
  0.3641799010903091  0.8605324855590339  0.4156557423393094
  0.1997628493662423  0.3613903049455041  0.6112820443813978
  0.0785588689949347  0.6186865581681706  0.0709504339588921
  0.4099929264608503  0.9117010495641034  0.5215998870752517
  0.1145410046754162  0.5512062270308864  0.4018533928841665
  0.2819699650663411  0.1209672112241068  0.4924002654331177
  0.5779006516204801  0.8899972570899617  0.7273264197369084
  0.3157690221529792  0.2610464358992848  0.3237173259378047
  0.6582571220762269  0.7532378987533591  0.6862938236021133
  0.2083051567475190  0.4831065291048729  0.7628026228435815
  0.7082520369008191  0.9445708000745684  0.5690155664151009
  0.5955496861626747  0.8405837628784041  0.2421773253067663
  0.6696457870854942  0.0721519215109873  0.5424459460873554
  0.8446973334381690  0.0606081682727309  0.9271431708173780
  0.4490187536887160  0.4970427551923522  0.3935576567547270
  0.2759799324514216  0.5931389206533910  0.6240040717368260
  0.9342480202624124  0.2550249063807352  0.9414284464981236
  0.5451607543432654  0.6772539558671855  0.3386499744205262
  0.3171993996957316  0.5442771054577020  0.5172330001534170
  0.5685813943196008  0.4350813442485643  0.0310878161459718
  0.3374868176337442  0.2320428957949660  0.1066262883839420
  0.8691300949552002  0.1656086089749861  0.7725408264355762
  0.3699593955422658  0.5200619624971236  0.2424936551986409
  0.0107512471616479  0.6911114890019509  0.4134110012099621
  0.0379939363015866  0.3065883157274923  0.6053951409518771
  0.9130425770437037  0.1229849853108894  0.1192942365222420
  0.1483789348973423  0.4387945077090812  0.5188588872801929
  0.7016125606167469  0.1106677533208693  0.0809790125741471
  0.2151113477005865  0.7466449676744010  0.4698535314053429
  0.6867412886926334  0.4468242656028563  0.4877272057298463
  0.4718344637789251  0.5828461979991139  0.6324905643170549
  0.7797582521648441  0.2461567431185712  0.4954665688778167
  0.9470097688225440  0.8946901182279510  0.7913016208134820
  0.8064668375414173  0.2799447161351779  0.2397465808598638
  0.3181096542938792  0.9190507741221445  0.2488285365048397
  0.8675691738901387  0.2470876669433965  0.6735410685222921
  0.5900789284229447  0.9006489300548638  0.5826541793054739
  0.9924485391878971  0.8666705358707251  0.1298568227534578
  0.6338375746640373  0.6635247770522855  0.1260686840398726
  0.3134592755168287  0.3910402711696610  0.7537188132794188
  0.0329655281173867  0.3797794082490119  0.0687282603511346
  0.5914375750712056  0.5384319349324277  0.2326396802701972
  0.7171674948247896  0.9478381945833957  0.9874592087603848
  0.2884785822673914  0.7391846390865804  0.7723020258662877
  0.8180312698676238  0.4574404774326760  0.4557858348359610
  0.4885584320920227  0.7223495539575453  0.4460123278892399
  0.6413854319045258  0.7159024908180038  0.2454592553309195
  0.8487825824239748  0.9510603061299596  0.8516854254195275
  0.2780280398117065  0.9516254753662934  0.4508378428618042
  0.0283178365370298  0.4992489979147576  0.2321673056059233
  0.1383504844786269  0.8158629733209130  0.2666934737421119
  0.4268192547801097  0.7115400217461461  0.7411181584630888
  0.0325331433774854  0.7109601789366745  0.8759202514795569
  0.9323473980901966  0.7576331072491531  0.0878772979489434
  0.2923444771128250  0.8326028380049096  0.0644734665111921
  0.1229531334014576  0.1935515692466748  0.3203989880964310
  0.4963172416689094  0.5059485885145872  0.5160226670400957
  0.4581483984463892  0.7515790749772017  0.2777890222944281
  0.4044235165533321  0.8717870372654303  0.6463232470457000
  0.5529646891020592  0.6771719100818997  0.9695194244665838
  0.9922417680309413  0.9803006351040239  0.4952674895132315
  0.7544775790129558  0.7987985544439685  0.3651561275999424
  0.2118460635040249  0.7304176524779058  0.3407906988499703
  0.7091194344096815  0.5651222966778461  0.3031251946866515
  0.9485926213571340  0.0631504338477340  0.3545381012960251
  0.7067661403951870  0.8970849084761573  0.7698266098560025
  0.2569056087829659  0.3323590743886513  0.8501846975604015
  0.2943757216975283  0.3033063659807945  0.4511745461421884
  0.0248151298839794  0.2501614057873870  0.0905412614850296
  0.8029097582983887  0.7423489241325534  0.7983267122883972
  0.6607878795464909  0.2643364718892439  0.5607711483465542
  0.8784777921653061  0.7742791715113183  0.5308525610657645
  0.8386554502536542  0.8871598140521030  0.6049799813893133
  0.6281866317573913  0.2822098898206684  0.2265293795786736
  0.2851937727517354  0.0366971124345039  0.1099087410555256
  0.0395542040573604  0.5913946588142870  0.6998592264071545
  0.4698687572097277  0.2129011801918176  0.5547098581782121
  0.1977476392102499  0.2332031336451561  0.7902434668538301
  0.1759103448321180  0.1042382038008792  0.8875054319226192
  0.2124256893655065  0.1224540938569658  0.1774531211562029
  0.1935376254076851  0.9179169644816377  0.0108783417039807
  0.3872499531149041  0.1279671465934615  0.4125439587069014
  0.2056349608873581  0.6229594868878175  0.0838122842938356
  0.7451784781525962  0.6274871125476521  0.5843808091897594
  0.6014482258934739  0.2303833620072051  0.9468900135320980
  0.5070770336229792  0.1411168573272363  0.7206335348022223
  0.4863487576468674  0.4613042422432992  0.2666254901310831
  0.6617500636044119  0.4676352973758572  0.1379432237951513
  0.0421620076478693  0.7247355873959760  0.0064278139360706
  0.7368846748325216  0.7540443141545045  0.9698829504075422
  0.3290959005043554  0.0685073777135606  0.7490907209776984
  0.2105245544071325  0.9383458127865456  0.1684833078994806
  0.3296666709433386  0.8525445394596833  0.9433341176417418
  0.0063154410405777  0.9262594430416367  0.2614742178903541
  0.5176600721328828  0.5998836758802168  0.1464328325374175
  0.1291402731265084  0.0609015756372141  0.5559004293019045
  0.1552351225008184  0.2800565232401743  0.9924428590950697
  0.8550896943874614  0.5047186117469042  0.8370839579047192
  0.4858307647370728  0.4391342482613246  0.7081025400132070
  0.1289177831015544  0.8315970671235556  0.1366560713708473
  0.1481376985938032  0.7929738559199265  0.0115144553983425
  0.9749644245631447  0.2416924268267096  0.4545422889576345
  0.6391610838862328  0.9948976847688553  0.9131081347817541
  0.3834939128425576  0.8897010244709731  0.1428460018359505
  0.1301495447595182  0.8475795860972223  0.5025239658806883
  0.7437232699262681  0.0565313851891689  0.6420900000856673
  0.1367455131103355  0.6780881406110428  0.7234727923141786
  0.0202842968453392  0.1231175898391031  0.0329527848882959
  0.5113229819016956  0.2891587536609371  0.0522853728121828
  0.0959352886652273  0.8369780083954511  0.8557186857779262
  0.0323386495045057  0.4633509690254664  0.4599565613298024
  0.4183398623159152  0.9954682974274821  0.0907687807588413
  0.4338749161990618  0.5617982195760112  0.0674617574309638
  0.3375207009652637  0.3285568636395369  0.9579324295494238
  0.7418836298617694  0.4465440871351232  0.3668007905891202
  0.4825238068038986  0.8705253466461271  0.3557538383865503
  0.5423329359071422  0.0431656830088660  0.4098169619184658
  0.5354797855755252  0.9978332671883443  0.1518770733160136
  0.3732252911377081  0.1498098548100696  0.8413599633413144
  0.5943450331421808  0.1151048722238104  0.1741620990390169
  0.0672175282312908  0.1386101810838553  0.7098355994470125
  0.5844464063728989  0.5301963131187456  0.8481366296452056
  0.0308772631911006  0.4623059108353889  0.8753855338519926
  0.1251409355447182  0.3233275098449747  0.7082743628212381
  0.9234690185499610  0.5156915649623607  0.2974264640545854
  0.4465532778408788  0.0328782312046172  0.4839701398851837
  0.0957400551968273  0.1796327581660241  0.4978564284898881
  0.9760318875638194  0.3585457617916111  0.4051760105177054
  0.4941614097703478  0.8154287617803238  0.1724426087158548
  0.2314267635035412  0.6292957093270450  0.2629072382540749
  0.6749087875410413  0.2243798588943648  0.7465027286831796
  0.0371087589188215  0.9539267018632027  0.9127689859058470
  0.5868529118125619  0.2823744350097643  0.4431675875099014
  0.6471559328761723  0.4098928937149443  0.8255828743915747
  0.6927984765717111  0.6387563772722752  0.4114318438653885
  0.1529951542272498  0.4120746410370312  0.0218197930851709
  0.2793729201238787  0.1842114060485832  0.7011334605647849
  0.7715969054538991  0.6137337144480571  0.8227563181983021
  0.9263571090821980  0.6667181725739993  0.2533012546006752
  0.4928239056898336  0.7706468310383257  0.0546881605522001
  0.9244282442262010  0.1659643247883068  0.3689130356642488
  0.6954745891952339  0.3840147457987658  0.5971966369670191
  0.4031801284553620  0.1547119918681712  0.1821924683316727
  0.8411591878378987  0.9958751340762499  0.3113083545318575
  0.9885807115330987  0.3796366564716325  0.7733534741607960
  0.0692280690748634  0.2378549916130470  0.2145372835966652
  0.2390093126998752  0.4275855545256610  0.1282372172571179
  0.1989407742647324  0.4117162035125640  0.3242367980384397
  0.0805462802243983  0.9806483041191723  0.6576474193343220
  0.3216103270595238  0.4145499387120492  0.6300588929105591
  0.7195344368401057  0.0106024085139598  0.3480261509849475
  0.8325777509282550  0.9065276683509452  0.0419270529747662
  0.8461767609491920  0.8915199953087941  0.3961650560330729
  0.8198287036868072  0.8537413823525394  0.1635273677398743
  0.8476041209426298  0.5433975983064921  0.5465043724125870
  0.8330802813631303  0.2759262279626395  0.8451344639153502
  0.2283131062294019  0.8254697458760942  0.8586170320333240
  0.9117154075765284  0.6063991762493116  0.6985060231811865
  0.3688723283323185  0.6866988457767836  0.9467927419424276
  0.9629975734381473  0.1230461350602352  0.9078049792255238
  0.2574451584339424  0.0870875086528452  0.9875665782928598
  0.3400432933020882  0.2253392226284166  0.5416239498760237
  0.8647603679869518  0.9923707534722318  0.4822264697224158
  0.1759642465463453  0.1158145978503491  0.4107314568636894
  0.6940219843447851  0.6217624467695161  0.7033590313808394
  0.2809450633167834  0.8147391827330325  0.6567464540546527
  0.1069819154458123  0.8011037254497858  0.7316903088319731
  0.9202253699847596  0.6133508604134496  0.3763347080647713
  0.2655732529347932  0.9422067769958442  0.7887837618873469
  0.9054821368197988  0.6477323045178048  0.9347385593902077
  0.7144948533691059  0.4438852909057064  0.7257425416300024
  0.0565037489736325  0.2774909949238865  0.9046589967008838
  0.9941165142247210  0.7778291506383126  0.6633677067075702
  0.5006853908335946  0.3098952144930330  0.6421922812016509
  0.2936695757128236  0.5216866662712271  0.9334574617870773
  0.8555256415119702  0.4372811968665388  0.1032218221905628
  0.1788017093067486  0.6754883147898002  0.2992410959326077
  0.6434237963278080  0.6620647565250897  0.1979937765661072
  0.1264617444912795  0.0557238209498042  0.4066481406872486
  0.0116516109037087  0.3723091000536541  0.6012067825032170
  0.9881260674363661  0.3942927948799053  0.7044810863848003
  0.9887078825002916  0.4291422155211020  0.9237960183384316
  0.9301645857507045  0.6171414940289190  0.7661451996921946
  0.8934885419244053  0.7196403863493738  0.9238201587329484
  0.9225837129706563  0.2116729390080541  0.4920439184983717
  0.3342740940183813  0.9265417909892691  0.9508188232946135
  0.0784747720650168  0.1367239070627921  0.3328935159005920
  0.1838596347441705  0.0748836073343872  0.9601927120438685
  0.0656469924257660  0.0155331765434382  0.1429412518648057
  0.2606264245907643  0.8396845726277434  0.9231196139508930
  0.4266878631883853  0.2256161665988451  0.9617555264732058
  0.5897866403128642  0.7642467864449671  0.6663637978937074
  0.8281647132521970  0.3553504334605323  0.2651390413942039
  0.5990556840153450  0.0339769988141127  0.9565595037789160
  0.9498311971542364  0.7880271261886203  0.5163833923797294
  0.9654378044289734  0.2741442566183753  0.1275510502100320
  0.5185755926504225  0.4468897050056395  0.9724623436726416
  0.0175137613071729  0.0991203316893285  0.6765381063905672
  0.6352746381493888  0.1120614666533221  0.4944770099280745
  0.1897608370184826  0.0619475459949765  0.8331333744530316
  0.0196948590179490  0.1949508246141433  0.0440056908339988
  0.3172328688538157  0.4934297428130086  0.9964679937651177
  0.7038595895612607  0.7887740583954334  0.6388878083090886
  0.5145901397399885  0.4269550642218111  0.0832905934069398
  0.4784993032552756  0.0089594570718504  0.4211558472253146
  0.7952750824168359  0.4587338424585100  0.2266901972068515
  0.3975313550286154  0.5000142326429037  0.0874003575156086
  0.6961141518695720  0.4270059089416349  0.1867060712623393
  0.8002644917345263  0.2724604641008304  0.0971730558380035
  0.8173491853872576  0.2942543491584301  0.5353239774736605
  0.5719839277036151  0.9557765976508622  0.1115987954809618
  0.1080815163328146  0.1276209173240644  0.8904597902045102
  0.6128814638534013  0.3076558970634342  0.5247782540180261
  0.1570955008209008  0.2587815580519625  0.0622258656128866
  0.7969768224499120  0.1131098579534267  0.9100615538815949
  0.6073264514033970  0.7727685823799224  0.2156668134450067
  0.2855081501117006  0.0123588317670908  0.7396647647108584
  0.7867704845407194  0.2603097199705434  0.4243568556492208
  0.7633655042647487  0.8743317977423176  0.2060276959167801
  0.3340134803148317  0.3603820095784490  0.6851077886636652
  0.5096955169713565  0.9276549314030981  0.3188575134602856
  0.1634248302308116  0.8769273634939396  0.5589642871510806
  0.2813551739079450  0.1558559093127546  0.9814799643773285
  0.8731509695556279  0.6621460922987720  0.6726419571618095
  0.8476377281585257  0.6023487967222524  0.1617458697366790
  0.3333921018265594  0.4694427896927560  0.2762172538298695
  0.7662722128790312  0.5676317538000071  0.2590360972117937
  0.8138694974090034  0.4413409643247990  0.3823514252824533
  0.6207439745694784  0.5199034721292013  0.1686978891840741
  0.0931546071105543  0.2996312670312395  0.5599485999039753
  0.1477947531280721  0.8660450156480992  0.9998440989394489
  0.3470198278723464  0.2571656308101792  0.4758471732459133
  0.7420066985396980  0.8017432881241240  0.5214906241785009
  0.9310653538049284  0.9780710408888833  0.4527998021475391
  0.6016910498618485  0.4598936858578093  0.8498254316890637
  0.1854522499383076  0.7910646347182911  0.3160971658490332
  0.7406717189448848  0.5975016263957833  0.6510611150303293
  0.7071401587298407  0.9980849268566727  0.4164248032410961
  0.7747981899934289  0.3818497231944487  0.6106340799030857
  0.3042665975068061  0.1882931049763717  0.3267146990893370
  0.5376164866058831  0.5874989040364201  0.2153093423252220
  0.6204952338377419  0.6848819260835948  0.9466516863038785
  0.8277350773419410  0.4921284098791803  0.5935490706896417
  0.7869976093636403  0.4045804685627802  0.0992045863996027
  0.2525992700728685  0.9740545841384325  0.1227281583358915
  0.1745726238036138  0.4704446555102912  0.2890709291701012
  0.3745998341568682  0.8571292421634161  0.4880185471577890
  0.5896601399121856  0.4987404718263422  0.3861050199592769
  0.0937257226940669  0.5219713414791152  0.2124788219004968
  0.9501845462622123  0.3511369484901285  0.2294582760555636
  0.9491899777861569  0.5147836573470134  0.9886129776159659
  0.8965931859956898  0.7072650418818670  0.1263129280314541
  0.7225136455281168  0.9857240981819473  0.1936304397022896
  0.6402555667729271  0.9091572357693539  0.3981050049591013
  0.6500811412372334  0.8770264495577078  0.7295042619951764
  0.0418564364040412  0.4280739241735567  0.2502338466934819
  0.5294344312231714  0.6372553732975256  0.8052744124985382
  0.9291147941499376  0.8151628229897484  0.9177382782281067
  0.1855044160686155  0.0614678641279506  0.7074915355833625
  0.5904007609047459  0.8317789089842130  0.3150567424569227
  0.9970835738252954  0.0447929852282127  0.5234192523639635
  0.8341258917844548  0.0568122145008718  0.4666114211986157
  0.2809509603576009  0.6581980333327855  0.5946172437019197
  0.0140421078005005  0.0355785483209265  0.3455939273472046
  0.1234654955247860  0.6616110196654059  0.5598017458373316
  0.9459573738458977  0.0619708284588057  0.6211743204913379
  0.2158089932685945  0.6776822506444128  0.1296110897097636
  0.4513068055258727  0.4405876814586441  0.6403623840741549
  0.0047124357634451  0.1223630841751867  0.8511332730625900
  0.3866988263302826  0.4522173165170992  0.4043547637630662
  0.9458940250328358  0.1249501495101120  0.3071694602249034
  0.4524313061253566  0.2045209921266586  0.2081053082036967
  0.6063029696770462  0.6906110886018858  0.3041848870047775
  0.8200010787260855  0.7816787546619562  0.1878547319788845
  0.1832563418292411  0.4983935128227973  0.6958686456351401
  0.6664999623412105  0.7628096440694376  0.7582199712844808
  0.5007615593006076  0.3505765915546624  0.8982103557577792
  0.8851795916901242  0.9619671888212076  0.0473443774107015
  0.3966830883879566  0.6206897375719939  0.9266662796904046
  0.2996887582485732  0.5349598993014548  0.5875186660260490
  0.9759223879965342  0.4272757922411181  0.4291009559579246
  0.4208740120638402  0.7059286422638470  0.4176294168165009
  0.8652044407998110  0.4954350522516420  0.1456794411972676
  0.0679921952663630  0.3092706212300005  0.2295006992488688
  0.9711337541822593  0.7189085221665891  0.2340109690695082
  0.3852909916559393  0.2050027152770443  0.7951921688395903
  0.3588284647450452  0.4277506716685486  0.7921321766091440
  0.7138346214680900  0.8920247346686579  0.8405158384350089
  0.2428977109686287  0.1853206808436823  0.7640851404699186
  0.3408488409112737  0.6821473558380560  0.4872730744192718
  0.2798702043619063  0.2906947454297004  0.3798996368805268
  0.1244220093511517  0.1651446163921417  0.4337977221597328
  0.8108202342427868  0.6748578244859504  0.8237947496134140
  0.3858928842702063  0.7441992143711037  0.2726488144011859
  0.5959283590178397  0.0072362009753403  0.4345588545986146
  0.8855370430873644  0.1836729608601008  0.0865794657667710
  0.5991775298955122  0.2513340096730037  0.8784389781976516
  0.8286031059722287  0.9849295163075259  0.1358340652982433
  0.2718537394631511  0.2601674218116884  0.0925487601261070
  0.3003996770890565  0.5829132152054602  0.6912714782832581
  0.9730966207050431  0.4023317829245250  0.0360332022789313
  0.4446188906724106  0.1353178868625464  0.6817280545411388
  0.5363119191747504  0.7277771982149112  0.3898201162291588
  0.1530263552927118  0.3748641556987912  0.6633725978986160
  0.6144342197850233  0.4243349241796925  0.4723139582817779
  0.5201124522111455  0.0841241273068273  0.7662118618927394
  0.9408094741602852  0.6339883732395890  0.9981553757857691
  0.3425428102618012  0.6937920983656286  0.1349898713630320
  0.3379321526894539  0.8200015520671544  0.0082951068570027
  0.5317023266198083  0.8628477545076556  0.4073986229520789
  0.0371188371390813  0.2250165815222892  0.8595166956250536
  0.7674845182468066  0.5278459774859321  0.9891301027338006
  0.3986721464498892  0.9826937686584889  0.5048927618151912
  0.8283485273673084  0.4407633698854050  0.8133635746964673
  0.0328623126458555  0.1913263139913329  0.7463372170894013
  0.4372215953369393  0.3175115484081638  0.3891579909638671
  0.5059310748950359  0.6842476490511933  0.9118791046962090
  0.4725149310106389  0.3977138280106980  0.2955400618369827
  0.8619478542453914  0.6441219349594296  0.4002506600246803
  0.6391386790756355  0.8597771909933359  0.1187061989955142
  0.2845546242508326  0.1774432598839330  0.5388869734800510
  0.1627157455869705  0.4615517996223634  0.8140286977885290
  0.3548122446651290  0.5186489210710217  0.8837033986764057
  0.6658562184874298  0.1095493469876482  0.1628318719292211
  0.8697095433137809  0.5474049826864545  0.6913515518140898
  0.6341767629850337  0.0955939505868761  0.0551090248607720
  0.7601279302432655  0.7000103799885079  0.5843229826891685
  0.1788175465100141  0.2795532039035173  0.7357940970096463
  0.3290379951135864  0.0966123438967357  0.8153213133576707
  0.1987956952270973  0.5870640219293165  0.6154063440053924
  0.3615416557523028  0.4100994282013655  0.5700377858986012
  0.4635107610813282  0.7301779841166576  0.8048827227639768
  0.2765885307308321  0.7765183114380162  0.5952168090559311
  0.2862991622055602  0.7592326845015128  0.4668787011222197
  0.7762403813403607  0.3804171170041633  0.7311812305123105
  0.0448951775927459  0.7524524681396043  0.1781322275323435
  0.2641746089662054  0.7775184022265428  0.7159973957023296
  0.1420585595226526  0.7837691077126455  0.0844208431281571
  0.2988865634719594  0.0737030207488681  0.2953755560929759
  0.2957216078594720  0.3585195702524621  0.9045669318629718
  0.2955681664629520  0.0419480229702481  0.9495352012057823
  0.0976396222129104  0.1079363879888182  0.7701967625719264
  0.3886534488294487  0.1059701390496459  0.2314502530540881
  0.1463662689495955  0.5563363764264132  0.8867570008024211
  0.4552945856965624  0.6287590194450268  0.1167247341132294
  0.2562043934343962  0.7636899006773401  0.8322960341020478
  0.3354126765146667  0.5409208017180891  0.1813044607637661
  0.8492489022670749  0.7322430923103359  0.4807572584894645
  0.9971513404883345  0.9934142338587462  0.0498302808840458
  0.6966337225829298  0.4025912132754021  0.4020549178442747
  0.7088210717558827  0.0029428144300399  0.9395634037962576
  0.5754985640307939  0.7466002369433846  0.8363066529793147
  0.0209980976426434  0.5326826554187060  0.8700109826845279
  0.9728225562261174  0.7164707367712859  0.8346557971111515
  0.5968873480235453  0.3876370277740432  0.3452433788405533
  0.9931368559923378  0.9765453048432807  0.6607499728158853
  0.5209437969085892  0.0196118258727772  0.8444791232053802
  0.6417648147712943  0.5627678587557682  0.2765430505431232
  0.2619202432351228  0.5673023873061916  0.4756318819497163
  0.3964939886309085  0.6903967439878268  0.0142416900899715
  0.4407750850768617  0.5564712786310658  0.8305001780864275
  0.9108015437527300  0.4456708911981661  0.2936988045238317
  0.3237786236062346  0.2387824442700334  0.6953470237771502
  0.6342722201006065  0.7304328782822905  0.0972885609201011
  0.4351955772265390  0.6355507143278575  0.7451238861493098
  0.4517670113801655  0.8209076057633150  0.6230496189163647
  0.6697402186287510  0.2431880268242552  0.1820236433504116
  0.3010662990945033  0.0617752005395150  0.5265311937767277
  0.4804246574983445  0.8081120133167532  0.8774587677340212
  0.3990949189146453  0.1160251557358565  0.9794306342192821
  0.7917060118667270  0.2545243087552247  0.3051085332106676
  0.7243326163659378  0.4002206817569798  0.3039364223886645
  0.3799725314051460  0.7361128133294101  0.5711739622444527
  0.3325832408298912  0.2778923684278169  0.5918590852931113
  0.5459052409545555  0.3472455326720604  0.4611483158061672
  0.3490746408977749  0.8344437403122590  0.6681195776988227
  0.2586162042385404  0.4300878720866986  0.3638752666673466
  0.6762595451714865  0.6892160735814934  0.8520621260202387
  0.2302520098605697  0.1841619419068772  0.6478953310709712
  0.8805836076909146  0.2152894817228704  0.6114050736142373
  0.0644917690325251  0.8610892135463047  0.1236758167397589
  0.1248072399523763  0.2053018273875356  0.2474017681877381
  0.4018075576906559  0.1873515309774949  0.5610068327538053
  0.0863353795555459  0.4206417593793390  0.4863149137604370
  0.2064278466229491  0.6410536592602765  0.0146165133509742
  0.8676195058238043  0.9955932594696866  0.5529041803354110
  0.3871936255276983  0.2640213845176754  0.3191325048988047
  0.8347637188748734  0.1979162669660656  0.7174645952357378
  0.8764690904490118  0.0252018520026348  0.6864198112166339
  0.9299944985265929  0.7598538657643399  0.6944440467979378
  0.0480854076460611  0.3093385062283067  0.0543703416082127
  0.1988759068157409  0.4719846312330515  0.1694565957499775
  0.6319817621130159  0.0106634682791962  0.8390998386272260
  0.1833008358897230  0.5306370330990331  0.3973207576980189
  0.0323476701033146  0.4232850142436583  0.8149229179579657
  0.6486753577075222  0.8877509381570512  0.2344167998685046
  0.5701364380663895  0.5443913384356769  0.5005646888610108
  0.1882317284177637  0.6651869142159256  0.8929879837439840
  0.7170912869126876  0.7900313311647595  0.1551924429144341
  0.5685573722603512  0.6332981630708725  0.1108889515191559
  0.6315470772313577  0.5813565147649302  0.8694552013793951
  0.8454224130656319  0.8399524836727726  0.5307385253132352
  0.2372002031343241  0.5464682012659009  0.7877928223594869
  0.2941196441792230  0.9506280668438243  0.5194924543009909
  0.0871098740183534  0.0024376239169698  0.7238413672265392
  0.9925874647916358  0.2974523005879326  0.9340294155787329
  0.2176113971690020  0.7074191143998123  0.5291590650563061
  0.8831333382490260  0.5420224636109958  0.2423932280018440
  0.1688146663702946  0.4683101239598327  0.9786520670510271
  0.8742243493196645  0.4268724662052782  0.6940205643215782
  0.2747517504352917  0.0005243736537209  0.6250980812824514
  0.1725799959611194  0.3734350601214340  0.5432157564458348
  0.9660017903126349  0.3134271474917733  0.4600556079484815
  0.2119083078545927  0.1106966074035311  0.4726080214208670
  0.5082852367014902  0.3610678413422776  0.6990494976185265
  0.9238334122828792  0.5138918827730997  0.8151949312922593
  0.6463941693158654  0.5875745202721858  0.4313578067296193
  0.7168967437333466  0.9501028160376391  0.3060972046459056
  0.2686334818357740  0.3752177809223907  0.1708702682975047
  0.4786495101544910  0.7464544478941461  0.6894805134586837
  0.4627686806204719  0.9947194718563932  0.1478530431084596
  0.3301691027654912  0.9780609429460788  0.2923755598430198
  0.4368936883114198  0.4332769680937028  0.8766895096067890
  0.6642189317299099  0.3051332850040651  0.2847125229424186
  0.0042200790799048  0.5000711124613566  0.5142807324612473
  0.3790639137781953  0.0433615130842383  0.6073368649069141
  0.0805990380310424  0.7815882676276074  0.9869254378149585
  0.3063197735610377  0.0051027008523282  0.4076656267600594
  0.9385248146007893  0.5696866851607029  0.0935673309388674
  0.4883355673387225  0.2257400044560108  0.0734180349109035
  0.9953307918469504  0.5288575862404700  0.2894922816116505
  0.4603210733979878  0.5050262045515477  0.3235415191757766
  0.7869755201137556  0.8469572214817228  0.4153809678487802
  0.5425261773985436  0.8468901648302873  0.7733581286813075
  0.3593686652399916  0.7951452291835854  0.3873579932138934
  0.1865374632290682  0.1688979349533418  0.3484579169300139
  0.7092734280374486  0.2454918369744993  0.5126503485943164
  0.7559327083491056  0.5464081658403216  0.1503061331983257
  0.8628880673886951  0.4572809220473486  0.0332619209820496
  0.8283839490573019  0.9313981125764047  0.4560697211420675
  0.8407379142865276  0.0612200503558074  0.9986862277946036
  0.3577996184865795  0.3751133303265077  0.3268925767185419
  0.2832641189939568  0.9748438803709172  0.8498141503935869
  0.8868851973419302  0.7699817079462639  0.0331710271702196
  0.3564926449050130  0.0309074288229743  0.1012964580862216
  0.0113379176695073  0.9078430042913966  0.3322518626365327
  0.5213823079638881  0.1148442683815332  0.0337660612696229
  0.2362382163018486  0.2878606552244135  0.4904396078353224
  0.6911285292804332  0.7880432197849647  0.9239562442902733
  0.9408526270877383  0.6144007309043947  0.8819412287668594
  0.7080425834778059  0.7367489837260874  0.2582251061803152
  0.5532258155917668  0.6093248579514415  0.9955720380117618
  0.1364931434304036  0.8264740967342413  0.6712082859541190
  0.4422468996856923  0.7432625512858173  0.0970491489519319
  0.7102752544098947  0.2846693700149654  0.7273307586967072
  0.3670164763362080  0.8353055366184722  0.8847955543028443
  0.8046243574305048  0.0781973596841555  0.6096731975331043
  0.3958275244058180  0.7320562803684545  0.9004525724014253
  0.8555586176064408  0.1755029165070138  0.3656594863816884
  0.0690130292411093  0.2914562723194730  0.6733645123035714
  0.4688597123859800  0.2627452569957691  0.5028873734863795
  0.6093590962887627  0.5319823078620960  0.6222112135479758
  0.9660694780854957  0.8298434173532506  0.8114401532627632
  0.0671350140355722  0.6916102327082745  0.3670154902089811
  0.4860109499039889  0.5498571260941828  0.5716320775090242
  0.6319946606571449  0.9241527597240684  0.9280272930440103
  0.3381010960059823  0.4662499069572003  0.6759338076258663
  0.0382297513706954  0.2171556683323198  0.4800229487111569
  0.6142746643996960  0.1548425058066636  0.3505406965235999
  0.9079398025399982  0.0766696464534628  0.8944547888265015
  0.3681648017694961  0.5957304235608378  0.0736806751059045
  0.9478014317603735  0.8082971685648932  0.1393638189558120
  0.0029449734323375  0.3084036970622070  0.7852113779497554
  0.1590420567993500  0.9774288748386658  0.0409334509033932
  0.4847856276568173  0.6870342079241392  0.3001101895803006
  0.3651601509990285  0.9366127533527402  0.1963519930684322
  0.8805546549955301  0.4000941419112121  0.9475863771347109
  0.1935821589132561  0.7093344890353440  0.4092125053734086
  0.0254717402327542  0.3836058580053657  0.1408074204646783
  0.4661555937492107  0.6570901785608932  0.4920800107548796
  0.7293652575012596  0.8841750830516207  0.9514916776241351
  0.6294132556925026  0.8312196565112412  0.8511565456651471
  0.8821342730328156  0.2892062849932782  0.9014033568286022
  0.5485208448114299  0.8984740856233659  0.0135150043077876
  0.3939518709749895  0.0403147250973614  0.7283688745511065
  0.1078314739131385  0.8507362976860919  0.7847931022251543
  0.6084253521400682  0.2450986088814638  0.7719964053160983
  0.2245656649864747  0.1558661157295539  0.8881857019288875
  0.7424200041830750  0.6032732712750132  0.8881869641717381
  0.2165460642031377  0.9501242741660985  0.9480444923992826
  0.4131187130998816  0.3201015524022255  0.8109768312464332
  0.1776394203119263  0.6880902318489808  0.6624043787420658
  0.9552460612027404  0.6224343149718106  0.2001378735506675
  0.5159475635904879  0.1588235803122099  0.5389484683739263
  0.5011559707463155  0.0370239125322111  0.5303383943296107
  0.5383779346054776  0.1112160104752602  0.4307765438969409
  0.4917498159141935  0.0388376790835916  0.6500153468286484
  0.7488624128021051  0.4730578532167318  0.4527089995524776
  0.8021053940418755  0.5997498386929695  0.5492897479328605
  0.3055222333049354  0.5198615814445987  0.3772590642822649
  0.4421712834499265  0.1282348012454117  0.1279003463351050
  0.8599749686699815  0.0807668571625319  0.1063812554905790
  0.4879928684047981  0.7554824821023500  0.2107978102617321
  0.4779210776944564  0.3325282543757140  0.0055807916647063
  0.7704268852216173  0.6753325855781136  0.1511535024632080
  0.6896687454237720  0.4900037790460809  0.0747015337338315
  0.0639264420158349  0.5005362489517844  0.4057923005894865
  0.5335834629180189  0.5379362679430523  0.9012996162443225
  0.9694675936195332  0.9381993137257036  0.1437571636711469
  0.5006577792712389  0.2016724255736794  0.7639683830062427
  0.9322405018987906  0.2683377225578544  0.7002330080712736
  0.2662638378318559  0.7716243592358986  0.0939300778393165
  0.4816573165320849  0.2838463087862285  0.2943407339035147
  0.2531938259005667  0.4118245197271769  0.6140161018407786
  0.5564293879464631  0.4818423534449578  0.2626091517158996
  0.8634334351903109  0.7778103747759106  0.8203967918597329
  0.1518579227252654  0.6287230849688752  0.7752959081274365
  0.4926585913215006  0.5339911673587466  0.1209854348552616
  0.4019701897929315  0.5647497772565774  0.6481157502287486
  0.5419582075608851  0.0544805462564652  0.3345058339167245
  0.0788956560961333  0.0367652020542096  0.6068330327840992
  0.1604625730698325  0.8199995009225223  0.8841234099849263
  0.6774137873681364  0.6865176350375516  0.6743951335910456
  0.8921370742823569  0.3770972605268599  0.1282918881505823
  0.1923327357166568  0.2829755781673388  0.1755232898955235
  0.0754562514151017  0.9160224957433183  0.6334971635452796
  0.4304880425154121  0.2747535451868448  0.7068436894403177
  0.7743427569949147  0.0967393176384832  0.2043486762550139
  0.8711597814588850  0.2726056220286437  0.2066873361414599
  0.6955830631902030  0.3066410735341364  0.6119937126785736
  0.3389523604734112  0.1789978500121974  0.8969537141098782
  0.6504353186920799  0.2656280027184358  0.9883015980827707
  0.1272289021675182  0.0404766348614432  0.2851949561044078
  0.4289673948863008  0.8433869675789416  0.1728631525330780
  0.4537345324234606  0.9121416512091235  0.9417298858688705
  0.7546085367087003  0.6478903215446581  0.4505129336630548
  0.3622341142910969  0.1947191241608892  0.0526711112689293
  0.1070836048854597  0.3647642011948466  0.7634051860243628
  0.5507769066813430  0.9900978485492818  0.2238464232321956
  0.4769004754596083  0.4200013683581301  0.7818560208922803
  0.7321593898313088  0.7724245423129693  0.0407499967247197
  0.4161387869001792  0.8351019210686428  0.7845419158978948
  0.5546469432611300  0.5370499367914315  0.7825235895798651
  0.2499382846410078  0.0684361053682297  0.0565580747225675
  0.6918144004893509  0.1009843586801508  0.6171280038084538
  0.2657620371311286  0.6088429572981550  0.3223756209553035
  0.4046761229037985  0.5731471239354862  0.3998203929929991
  0.7986690167714308  0.7900096363657657  0.9417271247126351
  0.1423067085780529  0.7422306677554925  0.7565200457255024
  0.2063099255291453  0.9624027414948255  0.4399450815124468
  0.8947291688661398  0.8877824153381368  0.7417441520267836
  0.7813369235199916  0.9590435977087988  0.0271003589319489
  0.6420604557139465  0.8378069863875500  0.0188590940052104
  0.2727831052069578  0.6667722123460385  0.2219815777557749
  0.3312940569834995  0.6228109366823434  0.8304442449501125
  0.8756167609641777  0.8931664333269805  0.1855231130408393
  0.4971764740443324  0.4329629062944502  0.4097891531306647
  0.8125065906911219  0.9306298800214886  0.6658667897713032
  0.9618245553790954  0.4769722260766443  0.6190092978870207
  0.2274520593798813  0.1499926433528649  0.2428216805594276
  0.5560594719010739  0.6997128851266688  0.4914788675973051
  0.3174597570062021  0.1388515948902953  0.4320179597404571
  0.0104220495421201  0.7033129595167943  0.9441279895045598
  0.7116180441323456  0.3625514894778321  0.0111946777591505
  0.5377053563915797  0.2553953746573716  0.9745056781771479
  0.7866112841611937  0.0378621773774701  0.3344578686884036
  0.9661897067170105  0.2233581719195671  0.3813942901959345
  0.6823568881512473  0.6142289080963635  0.5497081814378179
  0.7290907985714431  0.6180957890690241  0.7660678873175985
  0.9977211642451798  0.9272904587800017  0.5434185042037044
  0.9808716422135415  0.0298449186462971  0.7638763970585088
  0.6532191952989683  0.4893448882780937  0.7214088674731728
  0.4286105746104859  0.3695734253456210  0.4979530689581333
  0.1533906997192687  0.8005970927256463  0.1988279613099645
  0.4635502456154970  0.5489679548961484  0.0041837621712880
  0.0849290635171321  0.5489062627768276  0.6605618591860642
  0.7751880652538926  0.2181515582188593  0.1999223258613916
  0.9310801851584224  0.1870042366906927  0.9246799038945294
  0.8396052879986933  0.0004835520697065  0.2381798219216183
  0.4932908172092699  0.2389025348437364  0.6184103242093456
  0.4798907682176509  0.8987404188648320  0.5120281023140841
  0.5577016498496397  0.8351446006550269  0.5649143421682179
  0.5996721318674825  0.0798436990896192  0.5925052747424148
  0.0647824251020450  0.8922158855703380  0.8897535653296271
  0.4680648938410242  0.8133866106284898  0.0016798983935749
  0.5614368236698630  0.1468277863531002  0.6753371612084469
  0.4194033413625929  0.8946655044923653  0.3830990280557807
  0.0440182097191454  0.9682749319061195  0.4436184843231714
  0.0367010495474576  0.0873017940992707  0.2249363699336457
  0.5018857048942897  0.1771136369970386  0.3154010783620438
  0.1962439332468983  0.7476927870207140  0.9800443209151840
  0.5942804220862683  0.3387220011531857  0.1944625141338812
  0.7851982032900028  0.6190044855861531  0.0501790099859633
  0.6765855982778192  0.4725395841913138  0.9516997110239415
  0.5919621553108765  0.5051766086762086  0.0176175080547476
  0.0718450239260389  0.2280873028169652  0.1425719274957525
  0.9607836783684603  0.8039227081859552  0.3028683677116536
  0.7128581188428330  0.1893480047161745  0.7945127666252817
  0.2977333074025364  0.8912927127055169  0.4119194640565917
  0.3200839993375851  0.2581186636074337  0.9620915197419867
  0.3413763795326256  0.1900309372659558  0.1658639962042326
  0.6237868081861750  0.4021081292694432  0.5879741779147413
  0.2045855045698484  0.3622506812285103  0.2707409737776684
  0.6664238333192867  0.9474891844352186  0.0382687231187061
  0.1761932055659085  0.8053852531988521  0.4680089212596201
  0.1623006451920403  0.9772617065511461  0.2078145781746348
  0.0852690999075436  0.0888893603220056  0.0350107584514869
  0.9905233032800954  0.1532460151325244  0.5773384013207381
  0.4100602197828203  0.4307943336321159  0.9928758872829865
  0.7267490225229598  0.1750618809660137  0.1158162446828181
  0.4851027661730180  0.7880961550945097  0.4777958000915392
  0.6034267521166222  0.8058649843722393  0.4572154037543872
  0.1379518819922043  0.8861187003709335  0.2797987693055830
  0.1640568983382246  0.9642138233148305  0.6469158306189442
  0.5138985884382432  0.0974682826072205  0.9331857640134964
  0.6943813291063011  0.3945864241230145  0.6742654381381515
  0.9177524784601755  0.9357713896026704  0.8440826211699511
  0.7226918584405788  0.1848681076141264  0.9051279199198632
  0.1025058149335882  0.9949959030406638  0.8187334713434204
  0.5626417133608914  0.9598999505927189  0.7443472123453306
  0.9910764812093491  0.8432192470601747  0.6364201629813521
  0.8642988604447194  0.8728739861401102  0.9894363544054154
  0.0297610016845982  0.5951460051210331  0.5594145133978362
  0.9037203613611434  0.1053185653456830  0.7354856364130430
  0.9290550742850708  0.1425058273877272  0.1851641232851250
  0.2691872119962747  0.5897092884931788  0.9378943242969394
  0.8362682334625512  0.8257623495468873  0.6515167846993779
  0.2380828461701159  0.8736191038728257  0.6525333240900507
  0.0411164687207688  0.3439840943716841  0.3782546977757254
  0.6654265825771738  0.9988107164957390  0.5297806802151129
  0.0346214428182245  0.6995670171872521  0.4849152047744441
  0.4375795595203376  0.0179631592070578  0.9189303088200951
  0.1031027571891757  0.5962355179265033  0.4583761149456463
  0.8952250725260498  0.0234157906956966  0.3475089864220237
  0.7160736036144315  0.5096513384715872  0.3477334289788871
  0.1488177122069926  0.2077657648768987  0.5418809740764670
  0.2521725925442934  0.4267192614792927  0.7460723038711420
  0.6286180032515669  0.2040956951762013  0.5869002853645466
  0.3219242902460536  0.8578813811219876  0.1259290878696196
  0.5744608426272854  0.6288574349422806  0.5768876622878244
  0.7586851866650867  0.0603548519106611  0.7148897776009717
  0.9779060815263519  0.0989671466858875  0.0880655003302149
  0.9413807179403373  0.9579904927205491  0.2536315874991731
  0.3252265344910829  0.9102254876718101  0.7585668513978476
  0.7865035201778280  0.3143305386444210  0.8856971112588498
  0.4630648737943713  0.6532540253126258  0.6105505746495040
  0.4152134445554587  0.0961665946675906  0.4724264951209223
  0.4904578709115663  0.3231495533255916  0.1293998316739250
  0.3618657366041816  0.7402635411630881  0.7864220266237893
  0.8299948864953166  0.9901895189363030  0.7928416359813314
  0.5349744545393252  0.7200617387909231  0.0240148334022777
  0.6512495047757739  0.7377409488262636  0.5461877466825442
  0.7105303063558840  0.9130697941551686  0.4936365534150534
  0.9064125675810106  0.9086108423954220  0.6093596879650990
  0.5645637936615667  0.1724977332278437  0.1399164347925462
  0.8210912620980700  0.1131285154805614  0.7964877033453237
  0.6151041157328638  0.3683521264975355  0.7746462475102940
  0.7850705589817409  0.7362758793276656  0.3805091029518971
  0.1547390906443689  0.3796359070149399  0.3698991628912411
  0.7666362121610587  0.4891764577477234  0.7031158129615740
  0.8086668479397481  0.7435921544501671  0.7263615928580190
  0.2259915655116166  0.0793780300904889  0.3642965796638069
  0.0685002874587985  0.6542391664123911  0.2459541925861470
  0.7723292429777527  0.8176955132693774  0.2999313652689578
  0.1367892478528526  0.2074695125353657  0.8162937925838414
  0.9639475689635426  0.7425420472886876  0.3996854513432574
  0.8115695331549446  0.2034413405934583  0.9936651835154712
  0.5363090396832476  0.8638861859227677  0.2093141424036330
  0.6726385648841486  0.5040807057663075  0.5321701059312044
  0.0732579963232349  0.7859277007674427  0.2834551910054589
  0.0411320470656372  0.7756856256075438  0.7176149599153097
  0.6860580208595950  0.8054286427968398  0.3776264163968640
  0.0870807734038849  0.9923122169600377  0.9514678527903310
  0.4705856322586620  0.8126459896359295  0.3149926639097127
  0.7645803341182250  0.8616752886798508  0.7452403280522731
  0.2052373346668903  0.1717269564646820  0.1266675393822805
  0.7487600922410323  0.7806262807951319  0.8333212908574072
  0.9836633289480677  0.2602401388334069  0.5856574100527345
  0.7076710896288534  0.4357022888408568  0.7979470138609162
  0.6816256550898879  0.6161196689963097  0.0973538030974389
  0.9451466983751319  0.1093839142840480  0.4090170155119296
  0.8395331034856773  0.6196798644013756  0.9460559865685970
  0.1954785210158514  0.5773830926066654  0.2311167448259193
  0.9784689629475192  0.9370547750209672  0.9537326320249306
  0.3494874732000829  0.5366889747812632  0.7709548182938599
  0.4256641053464109  0.3312935441973415  0.6175312903992046
  0.2939877200787959  0.3308148977639039  0.7861125404548701
  0.2002143773009376  0.3987318663147558  0.0754981125158875
  0.4237415122595776  0.9473108137424002  0.8201004803505663
  0.9240544625620818  0.2064863634125988  0.7973046111401643
  0.8159662405641236  0.3205148580456025  0.0053252250835704
  0.2843106958199638  0.7714538775608961  0.2142002647555682
  0.6139203686095822  0.3855210354154521  0.0008758023174428
  0.7224880062202150  0.0815411593305302  0.8295397690575151
  0.2445809315323819  0.4814052624128657  0.8980072924391969
  0.5177177014080282  0.3516093034318579  0.5819873206294927
  0.2977934808859275  0.6971783014827641  0.9503708059728465
  0.2411134123641088  0.2597132905011139  0.8507675381966431
  0.8453210391866972  0.3104519424803037  0.7829761036417874
  0.3253317148211139  0.3694116610353052  0.0180689151888576
  0.1554003086726118  0.3508707730290188  0.9818438058789997
  0.8528095315681207  0.5043279475846590  0.9102123130120575
  0.1496304388223906  0.0873078587817167  0.1770905024522933
  0.7775892456065299  0.9081081541801903  0.5662109811364456
  0.2520091518176917  0.9078784259813902  0.2210190386920522
  0.8079058732812227  0.8623143780131199  0.0939617029394861
  0.9777392287995449  0.6255939454972722  0.4207647886121785
  0.1735965353517922  0.8904532423197229  0.1289466766293052
  0.0834446462023405  0.1153012693223382  0.5358486760485985
  0.1161256026551979  0.8980689845585175  0.4516537250843286
  0.6564404784986616  0.7005746025427038  0.4242626213314094
  0.1019512071198554  0.4438882098422984  0.8928107964038380
  0.2840138320795500  0.7380247956872811  0.3367459599706494
  0.4062129430194324  0.3322495353762769  0.9321316334529307
  0.9217104775886100  0.3898254413161846  0.7954119568759423
  0.9730081059251483  0.8721820403874743  0.0558909448615988
  0.5557144062618047  0.8694695593918201  0.6603628981567463
  0.7396683936590537  0.0824128612847385  0.5227289238599797
  0.6110281363429918  0.4178366218694365  0.1104069818369634
  0.8193511025482303  0.8856461482037588  0.8650134476784871
  0.0716467729083244  0.8115169134061123  0.5260065740919678
  0.5454230247405563  0.6127949213279604  0.3727423649121054
  0.7115078345534570  0.9688617170512690  0.7591828259089161
  0.0626199516366096  0.9690843451340349  0.2482067241205874
  0.4050116033864212  0.9235642389949994  0.0839357277001105
  0.8356384531703047  0.4024251888954657  0.4979415904372112
  0.3824774523420629  0.7122955529823785  0.6805993727622125
  0.9785577143979485  0.5085548044402608  0.1797987431008715
  0.8138042552316656  0.5566710680072544  0.8100243112353367
  0.4916060385644980  0.5316943587118143  0.4438757846392383
  0.0090103837634998  0.2074411909614064  0.2425803752269826
  0.5753397975472482  0.2352493870862543  0.2436237372782296
  0.2020609597011144  0.2922109949313793  0.6000764834756385
  0.4275578640731270  0.9140039327547540  0.7012233953678866
  0.0899268253324352  0.6760393626842436  0.0278853359271793
  0.0630732841841302  0.7752143356832197  0.8637991700562578
  0.8148862340251216  0.2937654864469209  0.6633931093449374
  0.7121951257855815  0.6272996694843453  0.3417421538436615
  0.3133928697093630  0.4793129765528115  0.4868309738608667
  0.2013210684427020  0.4589348940775492  0.4756703803566581
  0.1927388820763658  0.3640223574045248  0.8512953134885294
  0.0109507567242359  0.9228408160612778  0.7684027999205819
  0.0726015610120429  0.6539246312720696  0.8589710911529033
  0.9044852016383986  0.8514347913235152  0.4000225885196216
  0.2015670282956585  0.9680212999833371  0.7539782041852069
  0.7267103663356618  0.1238115374300098  0.0113160392043174
  0.6322366957237380  0.0567739626257368  0.7425360516351475
  0.4234470941146867  0.1896243964553559  0.4024930738937719
  0.9134765519137585  0.5685516527224346  0.5594154995250632
  0.2709499933047017  0.0793331415791162  0.1656074256223138
  0.8293461725603121  0.9915964463735976  0.9073267469655216
  0.7379741481929027  0.6823857619564536  0.9600246759643889
  0.1125905929395094  0.1665222558507946  0.6575313718822495
  0.3139883524966546  0.1203329539142498  0.6991383279591340
  0.5195242864878782  0.3039285728159376  0.7916706690669115
  0.7125057953071733  0.3894310693155658  0.5239273051113099
  0.5769581901070989  0.3117928782835679  0.0758569691444261
  0.5041477624177430  0.4204974692434854  0.1837467428992244
  0.6690771466813213  0.1798939832684544  0.6908591193220189
  0.0269047532005207  0.5692486868915619  0.7658929089024410
  0.0868525342571975  0.3320984212400127  0.8738789681196827
  0.9380637803996258  0.0296839728215797  0.1642252006720554
  0.0707380172235618  0.6589015759416109  0.6986242795582475
  0.7214906765879240  0.9922825542530498  0.6240920342854738
  0.5166166311914576  0.5759855925456610  0.6897027470905587
  0.4038243456502115  0.4068399227103541  0.1164688340978249
  0.9944951081897080  0.1020234705230494  0.9688817551565215
  0.6832467693608851  0.5907945412290285  0.9771664861061077
  0.8522184074631723  0.5180226513917033  0.4764324200325886
  0.5593674159614751  0.1523597628710818  0.8431754630112963
  0.9237124736397608  0.3475778969926459  0.3545916282819062
  0.1415243744037908  0.5892888038435894  0.0943666560852505
  0.9466901058206422  0.6456722452955288  0.3178416840812163
  0.4382144676741643  0.1192757663592804  0.8498239327756787
  0.7342428794364982  0.1628215866222436  0.3703798407467663
  0.3855181559239493  0.9171360306080378  0.5914663699862338
  0.1326103069192104  0.2966942448659991  0.4561498341179884
  0.2666094557023722  0.6709589929911354  0.7581147317868162
  0.0102663505305797  0.9967875778768416  0.8659303882192336
  0.3185103572312952  0.3709844156270907  0.4609167336881803
  0.2558322290189292  0.5722981078381348  0.0971826409946499
  0.5748066971683361  0.2938651444644808  0.6717691162306541
  0.5218836550460910  0.2628241471739285  0.4023414075262605
  0.3768525826392986  0.5838360725095688  0.5116163350291812
  0.9129952429368081  0.2641797959954194  0.0116430414581061
  0.0251840573368237  0.8402380661177097  0.4108140943253114
  0.7739505939192844  0.4158579378659318  0.9428565953933431
  0.8736051403112916  0.7411291241978529  0.5922463966227848
  0.3392360889991614  0.6511874576506516  0.3919004107821328
  0.8013397648628388  0.1785753733856093  0.5019301200645935
  0.1050392053635483  0.5832709427183240  0.3373125097851010
  0.2875481515061796  0.2832534490973607  0.2583821765250305
  0.5497258133926365  0.4640736425024954  0.6947129045251050
  0.5958807487953205  0.2152247917767797  0.4686271441407662
  0.0387358688433588  0.5703517688076756  0.0334986112390723
  0.7003486610724553  0.3033701486898364  0.0930602347349311
  0.5078488556810016  0.7375905052565136  0.5861096479990333
  0.4072658902273257  0.3404477238004223  0.2242250369197270
  0.7564978775854395  0.3230893009520224  0.1992594116943182
  0.6285514593862894  0.5960141915316771  0.7144221955150211
  0.1126824605519760  0.2581426462215941  0.3472592201179711
  0.8813663560386120  0.1182083723875116  0.5549204949538976
  0.9060080187474093  0.5436112329089478  0.3618897981085202
  0.5925399075306268  0.9110409754434438  0.5029262268991230
  0.1116820739252813  0.9584917609125738  0.3624931501910832
  0.3735112680335359  0.5782009865287329  0.2845369528509249
  0.2315662018934379  0.8782697587654997  0.8093137474006551
  0.6437352941962704  0.2977902858337120  0.4010315938982801
  0.2120053230511842  0.2519182900549966  0.9601587892672598
  0.8575339487773738  0.6850921684083896  0.2441439588355571
  0.3769661450507590  0.2906476874384283  0.1190111588404616
  0.1421376173424406  0.4833351133960897  0.5747275308745532
  0.0980012449283208  0.2487266103946577  0.9581089857681445
  0.5522899019631728  0.0680210493490248  0.1397390798107716
  0.0073115306178807  0.8642411128343067  0.2187850069043901
  0.4245204738787234  0.4710141242613348  0.5165072499594396
  0.6661252339949534  0.3710227168085871  0.8871841122269760
  0.5632271179279231  0.9633489502916692  0.6026865255749527
  0.2175431768874387  0.9704802279463870  0.3174554377689479
  0.2509292636139569  0.8866432411655153  0.0416563857041374
  0.1821300859232931  0.0954097716046908  0.5865622803962227
  0.4425514552184766  0.0157027263282111  0.2773089163926946
  0.8376727941945009  0.9258597853990812  0.3327696583208818
  0.3927727783722193  0.0859070157494127  0.3547898004094426
  0.6751328356470140  0.0626995419651001  0.3227946066915080
  0.4832181981520575  0.2409550600539983  0.8633366369417094
  0.8960420592110684  0.3710693014587902  0.5980675845338987
  0.4341362793593039  0.4901138308446132  0.2151144638626238
  0.5744141790869041  0.1152659166612505  0.2447909963542758
  0.6608006203102637  0.8985558947381173  0.6000536053239722
  0.8185210989838153  0.2065277807561325  0.8349669399738120
  0.5208762274709956  0.4410204729760265  0.5377537949609695
  0.1337260014025572  0.0077860310026583  0.5116582257137838
  0.5286831600565596  0.9063945017302122  0.8730640325792962
  0.2963175048201990  0.4614338982511041  0.0989239345908007
  0.4535190833469073  0.0211821040525640  0.0338061226882195
  0.0442452605825243  0.6392033690217263  0.1296581575623079
  0.0871389943553665  0.4237912525169071  0.0488374134774570
  0.5680841100815730  0.8232732855357805  0.9341797013681266
  0.7516788710525734  0.0542075911706699  0.0974472287909242
  0.4408048266740277  0.5025827785085061  0.7375056983149922
  0.9757708399642900  0.5899981054354204  0.6619930453531429
  0.5275370435482599  0.8087207299314310  0.1075121955008552
  0.6918828771639933  0.1626195094308883  0.2638110435801579
  0.6107137195379376  0.1600417728595303  0.9592700125201162
  0.0160760740963504  0.7373085517597719  0.6049375384734635
  0.9940067779869013  0.7369463669518422  0.0597061429062926
  0.3302328854745331  0.8565281778960198  0.2831627451150220
