Hf Si O 
 1.0000000000000000
    51.2119930387381856    0.0000000000000000    0.0000000000000000
     0.0000000000000000   51.2119930387381856    0.0000000000000000
     0.0000000000000000    0.0000000000000000   51.2119930387381856
 Hf  Si  O  
 2433 900 6666
Direct
  0.6025702936468665  0.5136706359141496  0.9771024498740521
  0.3215342854967687  0.6404221486144940  0.6357617845032341
  0.1907589117033169  0.7821939779736919  0.6821916442768808
  0.3780725506334212  0.8367388974090839  0.4762419120635046
  0.4004968238454428  0.7764034020081981  0.9146505167604960
  0.5870971995045910  0.5567608474060687  0.2816369243552694
  0.4775034841368740  0.0596764549989498  0.1694054086359347
  0.2577541877178912  0.8499761490009945  0.7994378093596799
  0.4923899079724240  0.9042017368461208  0.8506406596417130
  0.2554098156300836  0.6383334205709579  0.9140071608134176
  0.5357384078453195  0.2600609431849654  0.2356209405201378
  0.6280174533986971  0.0780531332648320  0.4055230375264695
  0.4243993557639299  0.2191195904634875  0.5187658258145805
  0.9045741041472027  0.1678282852564625  0.7485565253186491
  0.1752204912711737  0.7356930563066203  0.0451017044193701
  0.5413956124060150  0.8221134062912154  0.7331048838234454
  0.4171117872699617  0.1587002584157988  0.9967426462216535
  0.8553777467615975  0.9485302055553905  0.3116357697042015
  0.3068495388902003  0.0102320641842642  0.3161673993109415
  0.3724332977669768  0.0196061924122255  0.7416808029554436
  0.1694801763251647  0.5452250216408558  0.6572218804107540
  0.2371860340298111  0.4122429302449734  0.4129477763314883
  0.7702913342900598  0.9569573714366862  0.1461495194633178
  0.5198034113957808  0.4496702015726396  0.9114411113725356
  0.4965902319853679  0.2134689036341073  0.7880979252198913
  0.1433631520818925  0.3200019854866555  0.9518528332473406
  0.5588101711082821  0.6552616447845746  0.0172080816297241
  0.7537403936091456  0.7502986590329328  0.5592695780555561
  0.0594492655073915  0.2965042419270211  0.5008880612587872
  0.2701702237861766  0.3832730298277267  0.4655537638110567
  0.6911748657498104  0.2809333818150177  0.0299467710034847
  0.6060311344868777  0.2844154890812060  0.3300267404237534
  0.0911011704611401  0.1730520606846974  0.7062443819690487
  0.3143940549747029  0.1794235341091805  0.5408917731532609
  0.5287286064379155  0.6112017066054912  0.6883058721573977
  0.0379719604614383  0.9491089800961797  0.0230562417513877
  0.8478883148177531  0.6744242217813984  0.4444507278470727
  0.9501763237763562  0.2055914804561139  0.5675225529119310
  0.2841562323515769  0.6232959715897901  0.7449512887968721
  0.2391696403782779  0.3171697146546818  0.6504856747418726
  0.2413006033207365  0.7273785913108088  0.0516794966286357
  0.6500473852440598  0.1218014540542135  0.6041381618478712
  0.3176765334417515  0.1051806991598688  0.6342634511843179
  0.7136156008889252  0.9561881301647773  0.8830087561899873
  0.2773169720395575  0.3050550212382321  0.2551469648371865
  0.7568816421496386  0.2875773895189234  0.0316325472917424
  0.4545779787646244  0.7985595916201811  0.0753088518056134
  0.1330529670684128  0.1488700577584596  0.8232719237214469
  0.6925361404902127  0.5581886774942439  0.7781821839945626
  0.3188754980503160  0.8000067514372281  0.2629411286531505
  0.8128915241196130  0.0379915206386675  0.3115890096375373
  0.5867582029878429  0.7448941562263720  0.4685144898162082
  0.4786115357046363  0.1740082118686367  0.1574994688424660
  0.1344006197503664  0.6638710836776225  0.0333952979868326
  0.9466804361639587  0.4613935890230144  0.1229198036374538
  0.4639999739096929  0.6984086536493832  0.2319146791629753
  0.5348745663588929  0.5664237751447257  0.8618757386619534
  0.5622903416771653  0.3418355287764467  0.0442093711360514
  0.6587696739993079  0.9214537619514764  0.5071346177070921
  0.7443643950250729  0.3231412228414855  0.7744693862839952
  0.1620382307094739  0.3326428460411363  0.0545984346650121
  0.9289062476698087  0.0044838639472444  0.4406185997871689
  0.3972835450628722  0.6858204936081082  0.7812394841557156
  0.3195320011925615  0.1102222108873966  0.0093926647722098
  0.4290438538549596  0.5000082792637724  0.7923060705104135
  0.2008137040707331  0.5806156695313285  0.0102897274843142
  0.7330090917952015  0.7259227908442466  0.9975071202386576
  0.7381306878185038  0.6298808541596221  0.0738130138466864
  0.4875984443512812  0.2704090520836548  0.6487521071887462
  0.8207414052272772  0.2194473951044630  0.3241465922078993
  0.9716379839393917  0.7128766018903187  0.5748748145447248
  0.3232558976684540  0.2915211942493906  0.9693620666524831
  0.0994397976180414  0.2392899018320880  0.6830952625464195
  0.1829270940224405  0.4984096473709601  0.1703181517293148
  0.3481671881736386  0.6271440774024608  0.4218011645966190
  0.7153295035155690  0.6686791582025741  0.8884587713832173
  0.5193891071492079  0.2524098156382356  0.8802041205387898
  0.6156821440882727  0.3505597169848208  0.3713614847853270
  0.9031531642321321  0.5242327126208722  0.8613457539955804
  0.4792370889341793  0.6529440885056066  0.6775086357048228
  0.8373493295019757  0.2593975684917047  0.8368685071518089
  0.0450773560373855  0.7372888203976540  0.1392827915693272
  0.0141882013934842  0.4342084669049420  0.3173880400316514
  0.0609266629422189  0.2865966013106127  0.1737180424704842
  0.9060121018962297  0.9023843698903705  0.3954988040078768
  0.7717592763589579  0.7127513124723510  0.6111290059681925
  0.9355115772938808  0.2106644169596257  0.7139537780337363
  0.9722281551989380  0.0629712752557958  0.2725863281626303
  0.9574874305914169  0.3762606585719757  0.4982430914027227
  0.0210578471361190  0.0559841555533688  0.7093109931749380
  0.1233151226638099  0.4316559371010165  0.4759249641006914
  0.5509986515049301  0.6839048020199457  0.1540582649958030
  0.6505379655691099  0.4127860621065134  0.2441642337513811
  0.5457393637520721  0.2996700716256172  0.9211506688232304
  0.8550955848619179  0.4950670940432750  0.9714736626218909
  0.5232411236006678  0.9221424068201506  0.0216165843086366
  0.4264337073062078  0.6616090212252809  0.5865365256347683
  0.9486830556657764  0.5829090170939828  0.8819715802947554
  0.4275026897302578  0.0166420923172378  0.6265796791147438
  0.4660447165778962  0.7741199613971428  0.3395146577655527
  0.4201883426716290  0.4778416985258643  0.9538055455493731
  0.2226916610439149  0.3953028251382736  0.8082130593373864
  0.2153606658372982  0.1711263131682201  0.2247296997599083
  0.1857597931624721  0.1035918997302976  0.2140972501770711
  0.3915763960582129  0.9086133098420351  0.8342783979713290
  0.1010083920805355  0.1832601687147365  0.2420774424051500
  0.5977870237450914  0.7921156037792939  0.4221282802202840
  0.1575405119276623  0.4839940644456199  0.8795550289881542
  0.5448732503707300  0.0928015720729169  0.7159127473578316
  0.4445562406060210  0.5483437374530876  0.7010535862612687
  0.4596799471056230  0.9273774486125161  0.0722012254476621
  0.1757200660654387  0.4395397476556988  0.2681678836157010
  0.6970900607380506  0.9437560232332776  0.3585156695141176
  0.7409215431234918  0.7979693458722767  0.9632236300556526
  0.5882482680990335  0.7760572546090928  0.7355917521398927
  0.8578517285921303  0.0718494914217152  0.1472778318644256
  0.6535773140360122  0.1699922092972866  0.1791273311540391
  0.5719298428272667  0.2044779539940469  0.4824914852903042
  0.9028476129880757  0.7677296796622930  0.2431429983647372
  0.0047589701118051  0.2508666961941393  0.5682153691286469
  0.8390853551709124  0.6674151652575734  0.7990319967859063
  0.7625400012798813  0.5900205323540827  0.7912630845232664
  0.2651999694840133  0.8297979977327263  0.4265499091445130
  0.3435668244346575  0.9041450512057683  0.0694737224910578
  0.8493766666967123  0.5396032362943360  0.3891270326299622
  0.5797988301987291  0.6260301784986043  0.9699181222441168
  0.5381895589941594  0.3339280681681350  0.7396979973568241
  0.1519474604651978  0.2011157171177898  0.0626120272167470
  0.3695876935189411  0.1139624761799350  0.2972741722162405
  0.7997325597918425  0.8390483344570421  0.6207976320662281
  0.9490435793179542  0.3522701559028230  0.9710665837460333
  0.7142104649150184  0.6809849328790958  0.2334393813605838
  0.2896351490276676  0.8867802507265701  0.9478659928681034
  0.8873042018359539  0.1074377988253659  0.7041531213213446
  0.4135461040662233  0.9717684875424116  0.7144965746976658
  0.5826801143701932  0.7035777732450178  0.5261518306734976
  0.7573624644998055  0.2291783307138718  0.3255144591679747
  0.5340607438047881  0.6729826485911929  0.6410181299659555
  0.4235845276169936  0.3813298147913247  0.8811078877850445
  0.3000043008874604  0.0308283709799841  0.7237051234532066
  0.6530246104204835  0.5819697561451946  0.6620760632292384
  0.8671294770321486  0.5232656675145919  0.5051963933906686
  0.8022970449772091  0.3979312958230659  0.4502150094222322
  0.3591414462087342  0.7686165380513070  0.3199523017519443
  0.8810514256097653  0.7597518275557774  0.1697823197268478
  0.3462909754151569  0.9734460398504061  0.0984684787422272
  0.4376196240102421  0.1795314118734918  0.6676841427179068
  0.8891118853051790  0.8388573463074174  0.8265988717381545
  0.8332123205932366  0.0698876449847964  0.7030376581619723
  0.9992421775589417  0.7330243619085685  0.5192541714888940
  0.8565300071697662  0.5057912574167618  0.0887400291817630
  0.5296986683226904  0.5243715589199754  0.9082768459294551
  0.7207987367051342  0.2083604920501513  0.8348141182412592
  0.7953013218694460  0.9586552590663843  0.4377113191788021
  0.1199169079106929  0.3461793546108617  0.6567926784926036
  0.1399297602017630  0.9895750784722429  0.3311884980975529
  0.5888859629309123  0.3949086699925095  0.6607600774104319
  0.9116601816330839  0.8634417818981897  0.5056693572190781
  0.4947879116779109  0.1038246944707870  0.0561132438775886
  0.5744803242013502  0.2417516303277481  0.1239124354946686
  0.1313002839404434  0.1981882687865248  0.9788373582176205
  0.8369922323142610  0.3545205236829760  0.0309450011263471
  0.6540290859266026  0.4294487725684386  0.6720952687836735
  0.7750953864436856  0.4517986691551090  0.9506642970088802
  0.2786803696981597  0.9139512945450018  0.2769714391694048
  0.2597734926118758  0.3991978213722348  0.9258557259492231
  0.2515292515154632  0.5147680728909129  0.1897369686772731
  0.6797368804426831  0.2595837148980667  0.3799905886048571
  0.7841554054135976  0.8233117005045592  0.0205848577023364
  0.9297875939203388  0.2929281117310888  0.6552616447845746
  0.3927142429691303  0.3130572869040457  0.9646663950595844
  0.9985502552025205  0.4977026038778877  0.3939932825624244
  0.6116712067252590  0.4460273484301291  0.5612523091658177
  0.6206237389947387  0.2281643951863009  0.3635301140345978
  0.8788813562794155  0.6330541326940069  0.3248383655876048
  0.4381019361275665  0.3729962062875360  0.2411319430563887
  0.4266901334782370  0.6773797708456767  0.1775293137901793
  0.5270011469301360  0.3651148538486641  0.1690219239474380
  0.4624435396716240  0.4148695014766395  0.1687967828857217
  0.9895818569128108  0.3015208093657012  0.5108560933113533
  0.9533900494890741  0.2887276759856081  0.9288351112880255
  0.5105817899334308  0.8952245489301802  0.7209952369932426
  0.8810790607905418  0.0407939914719636  0.4103362145039365
  0.4785507904487786  0.6708925052688568  0.9399825175110317
  0.5148110526734142  0.4577953171626999  0.1418189711786963
  0.5789641881485946  0.1908199176684272  0.0238427969109832
  0.9708947391043857  0.0970280135663452  0.6056234224599780
  0.3749589745178836  0.7852850213609684  0.7756131550193648
  0.7096251850685094  0.7513698761077193  0.9297496793461738
  0.4291895530829885  0.0207363484001910  0.1563447875626659
  0.0116453795175766  0.4239893345979356  0.8299484642156600
  0.0852297653162931  0.7290312645072689  0.6159840826469716
  0.2311204098028160  0.6154148053718129  0.3971982186489116
  0.3525902323766675  0.6025022857761148  0.6823385353186358
  0.1883968300084215  0.8704454752602467  0.0175126086588595
  0.5443815527203115  0.6314334150030808  0.4296189039778546
  0.1603211809497091  0.3760254988261234  0.2515877621205841
  0.9228557818236436  0.9559900656211534  0.3391417318017867
  0.9453501485804378  0.6306978424689372  0.2254388103049123
  0.3133265250736317  0.4289340580154328  0.6226262467640195
  0.6318895072184287  0.6487082335459502  0.5193005777358581
  0.0607332399543957  0.9627778917220512  0.8342488260932475
  0.7096831370109462  0.3668957959974072  0.3724771341655938
  0.2503660971849533  0.0038430138350807  0.9818045274657293
  0.0060021170824927  0.1488918828473207  0.1171573097828836
  0.5052252948735291  0.5408282345839824  0.0751732969608244
  0.9659948204341582  0.5301403470407871  0.0940003970158103
  0.7532180067552774  0.4589070931483565  0.6171247601154888
  0.1941850037243734  0.8757191020219982  0.5242266045755255
  0.8945342653176326  0.5808566766132749  0.8365377043544285
  0.3247697245658109  0.2217907988436180  0.6403602487890891
  0.4934774007534092  0.0643942123899624  0.7560218230345379
  0.4552255805481022  0.2505683144545296  0.2348900235083623
  0.3989067208696087  0.4128790608213366  0.9403539164634610
  0.3425153840188900  0.6494637689600077  0.5236983331413840
  0.1840282740391876  0.1540741217049884  0.3236858072260044
  0.1811665989279376  0.4369667707975330  0.7659124616832584
  0.3412297522059229  0.0402848775123666  0.0261496152276094
  0.0566662035468475  0.3694555884162268  0.8606474256403809
  0.2597532317785302  0.0779385748259227  0.2837054288096390
  0.9054278897053146  0.5889883844230083  0.1217248800223046
  0.7808666699244865  0.6366864829780552  0.5951241394389549
  0.0603641687631503  0.0030958804750168  0.5444052400181200
  0.7447100210056732  0.7761981120938589  0.6952907944532670
  0.4902789823982372  0.7764686538097080  0.6463822600825408
  0.5767380663289341  0.1040928898033625  0.5201974175648292
  0.9250751624469153  0.1566328712867976  0.6753912296434998
  0.2437109162273645  0.0375379284388311  0.2169248654866769
  0.9653126560526203  0.4097205309818136  0.9250003761355957
  0.1067265560511175  0.8668057506287677  0.7957346206472802
  0.6155109698418463  0.0123193874239258  0.2862060402281166
  0.6185372456019391  0.6156974514458188  0.7463082432125170
  0.7732611106306947  0.2825848818198410  0.3084163083879261
  0.4382646187011939  0.0677149964950548  0.2648150322725378
  0.8340997748891137  0.9316019068534157  0.9572933139307609
  0.9324331224390874  0.3957297924056873  0.1529199245995146
  0.2913359417033233  0.6326997170871761  0.3714839064015158
  0.1832914352029600  0.0375543926936855  0.5371772622104621
  0.9422748222366756  0.9365549357228176  0.8385675865952332
  0.6916018330172241  0.3710875538491940  0.9726890146691908
  0.1080821882984099  0.3336693701011901  0.8957885747761078
  0.6384532723387996  0.9911581795424358  0.3515511942724884
  0.2806977006506602  0.9393811729978022  0.9913304711142304
  0.2116554286950566  0.8185194175114795  0.8343842459278877
  0.3530100115175451  0.4239514200237707  0.1896341002550299
  0.7439996255364956  0.7055058299005896  0.7336918520836024
  0.6070638410806364  0.4459047778372245  0.8607255639278053
  0.7826873143679839  0.3069069694141319  0.2362431976398443
  0.7821041450140791  0.5777368062314958  0.8443031156642479
  0.2106267817168029  0.3098730213368724  0.2429213582558416
  0.9231719849028781  0.8535623165031523  0.1749816443516060
  0.5633382811401120  0.8689882595148847  0.0299848950761563
  0.8087857258328288  0.5349245108028567  0.4506423863756143
  0.2440920545325876  0.3994866872241243  0.5295773267876910
  0.8330275894656745  0.8366778169556158  0.2439321094061127
  0.0202855471860143  0.8799831135809363  0.0086324953675753
  0.5472143449707905  0.1524980970287950  0.6784106152304881
  0.4773921240418315  0.1749416254813307  0.9627623236552525
  0.3002160899110253  0.5605412805455982  0.7128056889736093
  0.9606131110651113  0.6807612443403582  0.0566987735813340
  0.6270728665323199  0.5559616245701099  0.7241860947800890
  0.4571008622021105  0.2605675571290508  0.7515911810190045
  0.8695019312308800  0.6828808850524180  0.5747217037250861
  0.2513118944871461  0.9859520392329308  0.6994456060795414
  0.0769668928193638  0.1270446057665440  0.8480202336995726
  0.4676052849198278  0.0995130196738453  0.3232447616589498
  0.6906166499957979  0.2251924773053768  0.1408486858288478
  0.2675019204520037  0.6139199357615385  0.2270053004712959
  0.8693548912124092  0.2437486632027242  0.5628865464937005
  0.4013109815971582  0.1171950288251092  0.2401145065759971
  0.0132592349685323  0.6238875581281362  0.7813994106601011
  0.9037202441007333  0.7308795441315429  0.6535150417688178
  0.7947865328280823  0.2057610904470248  0.8053518125341941
  0.0832865595909358  0.4508878627590340  0.1877103453021261
  0.5296416847289062  0.2037466645404819  0.9848269670753910
  0.1379464704288172  0.7218347952749977  0.1944551916205225
  0.9911154977133658  0.6586948876879883  0.5643052517580345
  0.2050517750590368  0.0153828573160972  0.6013251835005904
  0.9907228695789384  0.2400844132794104  0.1491311394528569
  0.1078460415818156  0.2356656335348706  0.8006590459872529
  0.1551284485446240  0.8325612923452959  0.6996391268333343
  0.5295592633609031  0.8906386731768084  0.6552089070271899
  0.1946026785691407  0.7470061991259271  0.1071121077915456
  0.5037572038279153  0.2821171135543942  0.7103807204825668
  0.9359359374687685  0.5770291668315602  0.7711745427495373
  0.9451989372139253  0.6495124843460665  0.7785484432502975
  0.6232577218180146  0.7529995324015920  0.2747635669974268
  0.0912859295218364  0.2206638644771312  0.0795206330591049
  0.0541581386370588  0.3510246360705785  0.2540709991295844
  0.4262085662444915  0.4269193341554583  0.2908113946870763
  0.8849777069540394  0.7936050729836215  0.8865460593293704
  0.9473506079198768  0.9520861307842455  0.2281366668950771
  0.5118392651471164  0.6133046246812049  0.9776466618167817
  0.1327733470839461  0.0708492338188615  0.8653744568319507
  0.0282347794687728  0.6375183689589479  0.9749706675596568
  0.6047277744447332  0.2817441503464492  0.3980446671037713
  0.3522949605259997  0.3766738082490012  0.8533677529123489
  0.7520089862183980  0.0033818069464712  0.4568621642592585
  0.3903511370593139  0.4758276450611108  0.2863201936365799
  0.6534541847804234  0.7129176449755149  0.5420931213892778
  0.8617167060178627  0.5310443005079364  0.3155532055559763
  0.1855966077924290  0.2725931252252876  0.1968737354906971
  0.4949069068296369  0.4395877181581786  0.5062141650686707
  0.3362080078263696  0.6448114495913997  0.8521769075347941
  0.6192098382294884  0.7330962431739304  0.8562264671113728
  0.0226579548295220  0.0479743153526625  0.5041829420374240
  0.0189509148362434  0.1606239575024342  0.8134799076585699
  0.3961699813566262  0.4381126996952813  0.0009818810921866
  0.4966356698836795  0.4329752748959280  0.0562954377454602
  0.7087678240692190  0.5825768362619815  0.9590033431627947
  0.1414766226858432  0.3945255763678917  0.6176347446577687
  0.6385769975012515  0.9846739679882891  0.1436729491623485
  0.4163585237508198  0.1886750254030435  0.4702361764762514
  0.3598374281806604  0.1456174118787452  0.4391795592011316
  0.5413124833986120  0.5091438294285828  0.2472885361904545
  0.8887096481725839  0.9036218449799631  0.8376970411565967
  0.2871537556055251  0.4844332478037273  0.1244529881968168
  0.0641785779049215  0.4879477575055968  0.6005093497608226
  0.1422479589428177  0.5929927295663490  0.2602434769059698
  0.1450311885021670  0.5721382612526371  0.4435284874880620
  0.3499829163855154  0.3355131059356328  0.0895170917312501
  0.2563506035902084  0.0717098583393318  0.4130291548624808
  0.9459231875176698  0.7913224517445030  0.7357346208103217
  0.3134993008197528  0.4983311366417462  0.9038602822135624
  0.5808761180746836  0.0094507848953922  0.1352066582710720
  0.7631792603672759  0.0434032395048984  0.9031451194894802
  0.6451564796651367  0.9636102246330912  0.4151700620007174
  0.3861521538368120  0.3813912304424033  0.4688032066913819
  0.3900536678020883  0.9172649836340052  0.7068744045000652
  0.7193574614683601  0.2980276778225456  0.4910662126085761
  0.3005369671347172  0.6456230002505889  0.4681821600074911
  0.2597881109521112  0.7504254382180580  0.4228716740320058
  0.4081004091977506  0.5177939762092164  0.9074761705705174
  0.4418180858142387  0.1749473424627986  0.7802266659535132
  0.5174673820040566  0.7944978159529086  0.2934209080847860
  0.6852295029766251  0.0328131994030725  0.2596763970373688
  0.2684471032252440  0.7747744161095466  0.5626870666712765
  0.8248970362254884  0.6320918920868104  0.5398542993045974
  0.1671489328104349  0.5634503488745544  0.2074431306785822
  0.7137823803222362  0.4226367377512271  0.6459310840988135
  0.4872471572554816  0.6683534206135300  0.0128141251304505
  0.5149856906284825  0.9555269715001639  0.6999265029180660
  0.7814344946766664  0.0230843471399233  0.5678358137010289
  0.4146687553521315  0.1215443295538290  0.3566125664584382
  0.5573456927480260  0.6369086072612771  0.8084238613902092
  0.2521493112286120  0.9727805608610353  0.8421290984509300
  0.3026975391994363  0.4728219653319739  0.2006523250433689
  0.1373039245426310  0.1322079804475765  0.0094447024554184
  0.5241659338080257  0.9951004013952978  0.4704356935428543
  0.5670340955050808  0.0829669486693280  0.0805138422010935
  0.7916145205957816  0.0527503133284988  0.8542721160654666
  0.8039129209248727  0.8065380396335600  0.6884874002855706
  0.3463530242172775  0.3880669888088588  0.0333246481071371
  0.9903073735186394  0.7362244562517931  0.7285188590933577
  0.5629239024051813  0.4760066405851155  0.1930306203980049
  0.2498901724443177  0.8234608261970506  0.7076786553001815
  0.6027445964043243  0.0962390235685513  0.7933865986299361
  0.2205559122244620  0.0057923206225013  0.7898351427025542
  0.4727419275914233  0.7652898879880310  0.2560113463642077
  0.3126177311041489  0.3011652205672337  0.6373982192376746
  0.4659878447166487  0.2188465533876492  0.2954431925130862
  0.3176191029178199  0.5484684309641921  0.1445192858846715
  0.1975515981695669  0.5414717767519553  0.3589079996951134
  0.5451641646524613  0.5494606531354386  0.9757529442941962
  0.2118299921617670  0.2750251701103293  0.3480702788200264
  0.1255610956308475  0.3113174437067672  0.4974533285882156
  0.9064552331373051  0.4527577440070953  0.0070667995496956
  0.5088325798251481  0.4794035331698800  0.3541029419486562
  0.4418543244003513  0.2907484147804820  0.9279974897035754
  0.2703200012517998  0.5038582100412115  0.0669661231335058
  0.4828708917412064  0.1857877449187695  0.8933230846183744
  0.6525053520776466  0.3783310997236503  0.8436733910866631
  0.8523579887328198  0.4056526472691945  0.5502938799067733
  0.6087967382385417  0.7405086541557186  0.3764489651407164
  0.9218592765718185  0.6901157902773593  0.3121807265305097
  0.2239387823758540  0.5009196070783527  0.6562076469297516
  0.5645501694787700  0.6628540196390201  0.0829368646837860
  0.2920435811032588  0.8056192257390119  0.8993805523701808
  0.7695541975004008  0.2010985475512966  0.0898066559114948
  0.3121390689163608  0.1083122083475679  0.3954181703604632
  0.1726690787926165  0.2468638035737774  0.5849439645431239
  0.3975803066806978  0.6949653548176545  0.2555933735660090
  0.3643795792679521  0.4237079548260138  0.7167603503822387
  0.2545072401975552  0.6393802799527152  0.1642362331740317
  0.8030617424592869  0.7279169931616229  0.8273024142784062
  0.9673027615103128  0.4289657155675352  0.5502165609912856
  0.8042402972577900  0.2518416929326242  0.6377746833984403
  0.9237095673817555  0.5082148478731832  0.4842596899298484
  0.7067529139883498  0.8675764071794764  0.3607876016738791
  0.0379008054575658  0.3430741584355865  0.1458195453489189
  0.5225152345530497  0.9289738086104129  0.3809332387739292
  0.6999778998850087  0.0490960122564854  0.4193436074490006
  0.8657733419884407  0.3560206447224815  0.6704638247692117
  0.7749974342530629  0.1723075309255179  0.2875123984266661
  0.8750715002385203  0.9705371949865236  0.8412596703376618
  0.0965683738429529  0.8880718043639894  0.5542923404698408
  0.2259559457295493  0.9977897290684845  0.9019782593631653
  0.0653406009434959  0.5847322313858274  0.0587527388393483
  0.1044133852742202  0.8057435468083268  0.4281576658611666
  0.8198700404167041  0.5667323431672766  0.7678166075759483
  0.7167066442762015  0.5850990493042466  0.0282668653289331
  0.5563618505170419  0.6119877822462828  0.2770330969076465
  0.1481172504805097  0.2684855764620931  0.6541884910124828
  0.6797867131541103  0.7298229267749022  0.4108701098090984
  0.3562214280911685  0.8558849379904566  0.5451922467633851
  0.2411690755027959  0.0239974766416599  0.3082613726035192
  0.4572993736758819  0.4939342006081571  0.8462849529142148
  0.8202424077177858  0.6592118368917307  0.3121023834001010
  0.2784977056225290  0.4111783053898598  0.2099995152550284
  0.3638438217538431  0.6589088182518426  0.1444349929966765
  0.3772911677591766  0.0900220576204173  0.4087808231028781
  0.4251192857429169  0.5054033592930602  0.1931760961609601
  0.7222286152231514  0.5607799412442712  0.6458348451404223
  0.4589292161906492  0.6064097960542011  0.8417707349611311
  0.3195909587278298  0.2124754524049556  0.4856891215177183
  0.2415428208384987  0.0564221657198395  0.9261688750057840
  0.6643656118856405  0.7496468859014130  0.3433627263340445
  0.3751492550281084  0.2040607074573375  0.5854733533026336
  0.8776726336959677  0.0725412601458983  0.0131964482661163
  0.9406763020764001  0.1508619788698756  0.6040275838805864
  0.9654769773701211  0.6168345534731573  0.8281662557648328
  0.2102136506618668  0.6956811134486000  0.8849293640097702
  0.6841217866064734  0.4606893015991838  0.5334697904174839
  0.4602586844022335  0.6818829645217930  0.7981225684244523
  0.6755397594291284  0.2482484676585566  0.4560360138819232
  0.7596367430428403  0.4288357706271996  0.2326813319644476
  0.7239387189435432  0.8994259902684925  0.2545191955789962
  0.2812232346376492  0.3922887654688743  0.0419265683315605
  0.0591251759732657  0.2728362366033444  0.1077392532097385
  0.2349207313339016  0.9481384712812575  0.9443213898696472
  0.4845857254723240  0.7993359837744470  0.7559789177403946
  0.2470848850199888  0.5247279484682903  0.9206310380386040
  0.4503317326790425  0.6044674748780937  0.4628974717245933
  0.4245567869083260  0.5003034021377245  0.0175185910051024
  0.9902465910186028  0.3444009823104657  0.2476773840407191
  0.0032939339617753  0.7491285959072288  0.9355331789176683
  0.6138528589952603  0.7659035975686698  0.5360024690740323
  0.0791353699610637  0.7887891026927336  0.8684491872688496
  0.7241872865938151  0.1655265391314563  0.1121012914476571
  0.4843812176857425  0.4147124427740328  0.2291838242302660
  0.7544522788454808  0.0777517859574739  0.7989362047576626
  0.8900579619387138  0.3784308768790413  0.5134551038506009
  0.6909995201553419  0.5073199447415173  0.3166555215201812
  0.9322286518966851  0.4391620916812068  0.4897618842177790
  0.2180140342557145  0.6206196793792338  0.5835410508106621
  0.3535733297240728  0.5572490068594874  0.9401700047078356
  0.9333212471301855  0.2165795747036872  0.6361597757994296
  0.3765279972884356  0.3345729511265500  0.5177901028146061
  0.0359735309297518  0.7243070638732990  0.4277207171537958
  0.7646900332419593  0.1459993881779946  0.2227879372464851
  0.9373588140811442  0.9272641518201685  0.1627451438479200
  0.0817678723282267  0.5611508187781954  0.0020983777775244
  0.1067817612353572  0.5004211682315454  0.5361085032514858
  0.8153109059838137  0.2824756260209089  0.3541831286659225
  0.0969989537957242  0.8680486633684860  0.6958437960222272
  0.4916153035387471  0.1542109475073838  0.3164476245133160
  0.4015990280771109  0.0239613474603231  0.3804066433278403
  0.1630936376302988  0.5289322948525602  0.2772454445938956
  0.6672054805301187  0.8528662227986893  0.8692123204954116
  0.4317475577812187  0.3188575836002439  0.0148292330710203
  0.5931894905637101  0.9875545072761742  0.5386928395842294
  0.9735606774331956  0.2389393037535989  0.4654156251513535
  0.6957313930901743  0.5872999568147620  0.3863677603887187
  0.1208057216191015  0.0060081820642576  0.8319878064779165
  0.2592820370486205  0.2705936528565906  0.1694137327099287
  0.9819298168836968  0.8134958481671579  0.9452834070117703
  0.4382064432936833  0.4991323706633680  0.4252017815992778
  0.4999899551277320  0.3980044061463329  0.1185222065196883
  0.3946294131387875  0.3649510167054895  0.6751910049374970
  0.7339933064679750  0.7246466562969102  0.8001530465721201
  0.1343077141459906  0.8935325458807554  0.9661150446437893
  0.0826555687112669  0.2098712835469243  0.7536769295282251
  0.6314690204381512  0.7624220862093447  0.0030306568976113
  0.3360631279702775  0.3137835111492744  0.5787275386355846
  0.6126593320368217  0.1273389185796041  0.6878740631467214
  0.2289204706409531  0.4141995531857953  0.9979550932229958
  0.2707026665683597  0.1969031397699733  0.6210440395541215
  0.2898787259579612  0.5450040146830022  0.2901509436618627
  0.9950411086624191  0.1090690286857990  0.6761292602934537
  0.6338855717447522  0.5562319800650642  0.1140562011562476
  0.8576084496152681  0.7345407214100936  0.3418538901566661
  0.6196991894966334  0.6256901391448458  0.2906977813192077
  0.6401779757773373  0.0210974633037095  0.7391683851322407
  0.2909802225502293  0.8784244446921310  0.0879566816770790
  0.3964752346472510  0.6649770868155427  0.4680673734479857
  0.0994946676046707  0.7622878581884306  0.7979948953790323
  0.1477072106924260  0.5534046254647111  0.7338993766486783
  0.3772837189233878  0.5518405561699588  0.7118656458970632
  0.4334560600019158  0.6536271467474392  0.9044623716103708
  0.6535578725746034  0.1495698851918617  0.4214992260379202
  0.5494333159080937  0.0384061973270297  0.5619850883865405
  0.8702670756431051  0.4653168535887940  0.5996921752306127
  0.5546203499538004  0.3957292709871821  0.7769088800048257
  0.8773366912018931  0.8582727367909129  0.4477550314029824
  0.7007194314877835  0.0376870704256511  0.7825972579432974
  0.8614539855795916  0.0323828685207478  0.4717104128113910
  0.7591289559071182  0.6531233074946851  0.5187847086133051
  0.4648367388780272  0.1695521134567951  0.1015382463922820
  0.6733077902733737  0.7326346388200987  0.1977648397161107
  0.4859123631263084  0.9501420591317278  0.4323105407901359
  0.8939802209116620  0.0209589824631122  0.7259311335403301
  0.3911136743790129  0.3309116621154622  0.2878585458257714
  0.0403683836170813  0.1682487720367400  0.0657946726621362
  0.7272214208756652  0.2605745217905133  0.4279500295635539
  0.6126021249779637  0.1922287718474305  0.8306201257387357
  0.8625690018088165  0.7445050290447653  0.5847287304330067
  0.1913508520613630  0.5491988638016414  0.8931704579730622
  0.2010244316351981  0.4863844330944234  0.3199743875500580
  0.1263760634434549  0.1622119189379791  0.4249784282581508
  0.3102948116634130  0.4397299164333867  0.0800266324742378
  0.5545619138370373  0.4797910588517921  0.4570595211634826
  0.5124940550571304  0.0394754823600337  0.0593140551712578
  0.8487633295578628  0.6792325942597817  0.1075879952880022
  0.8808990969178845  0.4228252677850415  0.1776169307211450
  0.3654934036834507  0.0714453548359941  0.9667014169970833
  0.0023468293307075  0.9958519889263873  0.7067895622604307
  0.4582293608241130  0.6113429365320467  0.7210458890766064
  0.4365721314774426  0.5978998736072917  0.6002870765008849
  0.7553014461254035  0.5793126446867944  0.2581237244613733
  0.5474093554917412  0.4329407495420469  0.3227417045339535
  0.5546495866342714  0.5931845370879105  0.0349860829966937
  0.6828160056926975  0.8003867165508146  0.4396847392443277
  0.3738160623986298  0.7248033053135485  0.0681072335656033
  0.2098101099830088  0.7588092518750631  0.9892372737692212
  0.4098695076975895  0.2276592896314627  0.2955519827597815
  0.8379272101824706  0.9477470349605563  0.3774538503328039
  0.3636709715193640  0.9258455210441924  0.7683743019114554
  0.9134648110796354  0.7781705638107319  0.3833168662263438
  0.8801133937188823  0.4052843023394385  0.4466754716321122
  0.0180514888645970  0.2874521745893137  0.4488511648334826
  0.8713142329782939  0.3996509712974461  0.0507613857179654
  0.8079356646926115  0.5151042016058823  0.9269340194180091
  0.8257059053037936  0.0284860263721677  0.6435498402738515
  0.4030792234808814  0.5927300463722571  0.2114960422312658
  0.1324190338986073  0.2428142253751092  0.0189113638459661
  0.4267210461467605  0.2401180075288179  0.6246926283001892
  0.2324832860429130  0.5990976091579511  0.7958698915052047
  0.7597937645012683  0.2607423999271034  0.5860378260787085
  0.5826262220432612  0.1154964056228770  0.6318252237655715
  0.0223668100994334  0.9341344365332485  0.6155613239717785
  0.0610414588127689  0.5270805515196446  0.7914029736593798
  0.3007652180853753  0.1051647493402360  0.5778728964613571
  0.5018919036138642  0.8356529316394354  0.2353723170035973
  0.7681313953763828  0.6784252149486341  0.0204078477586216
  0.7653122344953973  0.0645868579055501  0.0191702376588803
  0.0892280582805554  0.5443831914641851  0.4416447141612545
  0.2753424718928425  0.8919250126291753  0.1598714202447817
  0.2043177109141404  0.3803558795119397  0.6481962750621862
  0.8924593176203057  0.2335851178327916  0.2254804492969716
  0.3528517610012121  0.5718117042916563  0.8123322655285902
  0.6843265551023073  0.7197815981781743  0.8651258146933205
  0.4896259429646336  0.2413288157862866  0.0753651370710425
  0.3258120401577371  0.6897890843396627  0.8040522141541230
  0.8817379848044187  0.3980762129233369  0.9831485953954596
  0.5967742800312468  0.9155165928976591  0.3949833073271133
  0.9743878706475414  0.2102204477245241  0.7772394593371325
  0.4230519731022735  0.6338172659205691  0.6547407476978641
  0.6752286215582304  0.5756966445973026  0.9056453957103473
  0.2612392000300370  0.4297142118317723  0.6689114873908266
  0.9269660494119010  0.0056090670413507  0.8172864117233601
  0.6574641910389635  0.8738838578603547  0.9426703554170607
  0.6089090666822368  0.0762733224080243  0.7226682455114061
  0.9349904567420967  0.7619594390185026  0.9337256444251594
  0.1561362015384901  0.3516298912225971  0.1263765383067364
  0.7314062513101685  0.7211372118033771  0.5042979148178240
  0.9929933492157214  0.2167268009430527  0.0329209491405186
  0.7528511515926792  0.5626697481280676  0.9093000180134042
  0.4136995128392935  0.9702700797351373  0.2063147996553849
  0.8241131207470755  0.7662488511074806  0.1973668856640943
  0.1698914824153326  0.2147998988570282  0.9165694858364055
  0.1359375752828475  0.0972428752346730  0.4146255521045565
  0.8505444951716796  0.7284970340044965  0.2827260000138598
  0.0736998986197112  0.3451879518115520  0.7004173067081898
  0.6473182062994031  0.6476021559196720  0.5949522203089496
  0.0123508750494617  0.5513711677827278  0.1436349321666915
  0.4505778794576833  0.8580217855131883  0.8113531160641532
  0.5471625383178794  0.1301009655121789  0.5863173063975041
  0.8432333883566190  0.3313880896525137  0.5245108893934048
  0.2850130346881831  0.8396271834861894  0.3755027022862868
  0.6872657167278503  0.5329785396972129  0.5563672881671677
  0.5647240253060806  0.6745732729855322  0.2768828725118759
  0.5958063038204928  0.7882633638627604  0.8329567510373231
  0.1468872428487954  0.5434828506823933  0.9995338739684310
  0.5614838562263124  0.4510043625507708  0.0983606661552292
  0.4025903563880627  0.0882854360446175  0.8185790081977898
  0.1992368227784240  0.7558305369314816  0.8668580414560051
  0.1583749305127232  0.2639528481520742  0.4488508668800510
  0.6883043823902399  0.2273826957365353  0.8831642133928993
  0.9077415725896723  0.3317045906851795  0.7711052685767015
  0.1652705412674849  0.3642641223132257  0.9961362365000876
  0.0072891455521703  0.7781559640925859  0.1129626096409603
  0.0753419060144262  0.9961860692115148  0.1274813403198858
  0.6390918610309730  0.2340751208730680  0.0164725637979684
  0.7756751293331275  0.0302181530411212  0.1929657224161950
  0.8023602111046980  0.3487357578093974  0.3979514449238746
  0.2332310001793923  0.0752638515264043  0.5617440440604150
  0.8712346794120698  0.8239204938535772  0.5258730207499229
  0.0724728705223124  0.9317820197027890  0.2496541560823497
  0.5520799989963896  0.5177646277962085  0.1323449459156430
  0.7552058775622332  0.7806402253165071  0.6323093236034852
  0.4280851886889416  0.8685156308840856  0.4217222069372578
  0.6013486100891461  0.2748106995058804  0.9804961394594274
  0.8357880535206441  0.4147632065899334  0.4004600265966461
  0.1937351312869091  0.0173500971756793  0.9565412049811662
  0.2750981128347911  0.9197006784485836  0.8919907858491904
  0.7723735818464599  0.9337149925899813  0.3785689410503866
  0.2086141807750282  0.9137252968671695  0.4124384621844293
  0.7464224338651594  0.2409616626702569  0.2564601014763037
  0.9838573521207636  0.8855496285659034  0.2041584734270654
  0.5020361130747352  0.1917761805849033  0.6582760396515843
  0.0540700095986326  0.1237341476100638  0.6953219305868642
  0.3768677759329415  0.1569392419027907  0.5054430988319935
  0.1066932225109626  0.9706034151366859  0.2878423632300203
  0.6327110393175750  0.3160991679751161  0.8508820019212699
  0.0008024723178291  0.7072551889855883  0.9859970302010950
  0.0852641975597268  0.5805367863603251  0.1176049196364771
  0.6249658888411012  0.3840330345432576  0.4278250008548390
  0.5110670443408920  0.6746985624034997  0.5281361632834537
  0.2063931427857935  0.9843272246823207  0.2043524969772741
  0.0979226001224901  0.6683142397372810  0.5675767804364734
  0.7346178913488656  0.5273310186230428  0.8148980170160408
  0.0086552463234474  0.5255739127488238  0.8309445225373377
  0.3999423697535038  0.4948530145027050  0.7353192737267386
  0.4031742333813675  0.4482478463787692  0.1543074844192066
  0.9782209670560978  0.7907428578317768  0.2415905864979943
  0.9017923364218771  0.6429038027458891  0.8386968238961688
  0.3025004243823752  0.0468576277909076  0.9726499827696575
  0.6895800700074290  0.3033525711966135  0.6671990000429825
  0.4344166246210599  0.2304929384980573  0.1085751708730018
  0.2454414856240859  0.9663379882989481  0.2466402453896662
  0.5076794255566845  0.1763370158896457  0.0448208693435654
  0.7038693951661492  0.0984293351101571  0.2353769166596969
  0.6542528489536980  0.6492338978875655  0.8922357035699262
  0.7705780399795705  0.3242898705642967  0.6135760602573487
  0.5609104076031119  0.8996643530137339  0.2619594093403662
  0.0503364668803935  0.3822665058917657  0.0540828774624577
  0.0929564333689659  0.1531825519273380  0.9537935529237532
  0.6285767864780777  0.4924751598980267  0.3147455282913972
  0.7917936650965022  0.1024126093592603  0.9206473509889814
  0.8152545182968925  0.0298160043634513  0.2437211025103056
  0.3059637233381968  0.3567192337869337  0.5273780207768701
  0.8905984494635488  0.6824628563879507  0.0341765109345108
  0.8155573134717071  0.0258391058522311  0.0664066038332305
  0.3431471942704957  0.3529776835702217  0.9667551975914784
  0.8657620942463996  0.0087149627088617  0.2671839296521800
  0.4234496292008584  0.5548035540700258  0.3583987227922334
  0.2315719209841538  0.0765584126312733  0.0628685139105671
  0.3088806874330891  0.3534208148112972  0.1369778424449317
  0.6937586434198697  0.3308562055330147  0.7392232085636462
  0.1031414034528360  0.1545741899846245  0.0630615365234666
  0.5475205293658889  0.2940589567363648  0.0845737184152396
  0.4612171633473567  0.1040872659323420  0.7967740311932487
  0.3483544891495479  0.0678205278760925  0.6963877844998829
  0.2349900986171847  0.7229786384987252  0.7287433670040320
  0.2249264793793589  0.5639919909689367  0.0787780958634989
  0.2952066174884340  0.4407580047489563  0.7290340205765109
  0.0964919580988046  0.3671591123425411  0.5055077919708192
  0.9476332167497036  0.8641041323765295  0.7269684584122778
  0.6930876522920150  0.2034692885177966  0.2296001210404123
  0.6847843605498869  0.5314076547177138  0.7180668016912357
  0.7716898532094062  0.6685838131044775  0.7873711423119785
  0.4138338898369233  0.4222793053659019  0.5026323923796283
  0.5962993050171742  0.0946280545414637  0.8586762402255920
  0.4012122845229567  0.4772286965846254  0.3532887841969408
  0.3124063890107313  0.2907385636951513  0.4022507267202726
  0.3455759989119693  0.0656277768407658  0.7769248205134139
  0.7130027106802229  0.4975327704219032  0.6574078033520423
  0.3210982306496926  0.5754352277052949  0.4505357562912977
  0.5840025061877780  0.3627238892929976  0.7284136070436620
  0.4101528241668164  0.3757860559996926  0.9937460540721790
  0.5861353313391838  0.3593558981910938  0.9334569649182574
  0.0569088074729662  0.6187291276118585  0.5751386895525429
  0.3684270904146889  0.0504857834493023  0.6418275204627660
  0.8597172150270761  0.9797041047500048  0.6728720333797291
  0.6457051609093394  0.8305561402393101  0.4001082925706992
  0.0610779813857459  0.8117042541832370  0.8144640478429855
  0.8263391308341992  0.8799117537340796  0.8064464189533578
  0.9372223514094935  0.4919709109593042  0.6603961272937915
  0.2032566801222949  0.2262209008185568  0.4007304565799584
  0.9178220820626493  0.2176921141950122  0.1648267768753673
  0.4226150243949028  0.0461793042153233  0.4483518693705597
  0.4283106277040895  0.6272356980826630  0.0351379251864871
  0.5073723473012915  0.2067578377860130  0.3396226658844902
  0.2540286152539462  0.1894967809672635  0.5578240942265614
  0.0868323916472971  0.5080615880768288  0.0327718164647433
  0.2085537707167811  0.8994595845179000  0.3569434437441765
  0.8232717747447310  0.2530813654287745  0.0242251828962010
  0.1444657194443053  0.0629665499005923  0.4727587247161270
  0.1780417192040905  0.4402150591083109  0.5121552447612771
  0.9955212606173647  0.4286845592606870  0.2415496737674244
  0.7377066255970475  0.7786364884893211  0.2069504274353323
  0.7630840642458949  0.4893624776427838  0.4743777291748217
  0.4153302119701766  0.4382074116423358  0.8322661694713439
  0.5279646538394167  0.0217390501522879  0.1958828354878031
  0.5182973685318232  0.9963763124775605  0.4012189884751666
  0.5745360414930504  0.9030953612664110  0.0951377318192673
  0.3045282395712485  0.0406146421282589  0.2628449269389382
  0.0664742671953269  0.9316454825427801  0.8986768608532133
  0.3978856717038595  0.6268201275340061  0.8543660458847633
  0.8974349164621475  0.6999924251147969  0.8095107210201523
  0.5008066827277945  0.1623724972154961  0.8247675754594791
  0.3710207005479896  0.3117905937560715  0.1734363461230414
  0.1892998896152761  0.6579933563333995  0.8218877810551728
  0.0607503070993967  0.0309806344945518  0.9374461889249468
  0.5365400887970886  0.1298607778021692  0.1008873112547886
  0.7927786246528546  0.5152084480627465  0.0639241489519880
  0.3582731354208344  0.8566461345197136  0.1905552791549407
  0.2514787670309046  0.7115976367853825  0.8346582885965576
  0.2942187528861240  0.4653451964089705  0.5206462099211041
  0.6718885635905345  0.0979645743121599  0.4775373018513551
  0.1647893837197076  0.6656468116413135  0.5776969177158469
  0.3066184946261213  0.3105483141673951  0.1921006891160421
  0.8041029407258447  0.2013793872826237  0.1435931907531400
  0.2226555528124288  0.1778528167284867  0.1489375442107061
  0.2046831880421177  0.9009386253521232  0.9127048063641046
  0.4989112892171566  0.4675281894694138  0.2083545888477887
  0.8373164801361471  0.0460616219209051  0.9229682592440543
  0.0684769704965472  0.2212647248160344  0.5404627947001841
  0.8385471767851719  0.0840090314851358  0.2713303054719236
  0.2719862499514849  0.3327764036668294  0.8944838366993424
  0.5738533929371862  0.7761103648082669  0.0367056700161490
  0.0565799693060251  0.2395242049618246  0.2648555911834078
  0.4501379512159970  0.0013995329503121  0.0446096250161176
  0.0946860995943479  0.9603741524130067  0.3677945725236833
  0.9796417579944525  0.7293657917225437  0.2818534061453813
  0.2423774256444543  0.4482120919669829  0.4951901488105059
  0.7283105151563450  0.2425116536653684  0.9889599536128042
  0.9672381056156660  0.6085560291100268  0.1324101604729739
  0.6321035867589987  0.7281531957444857  0.7406568114995579
  0.1578869386581097  0.4128076637303010  0.8241467894848409
  0.5504395046464442  0.5703087526945511  0.6415411127266869
  0.3726604872585350  0.5635153772109905  0.0947649268990828
  0.7365624099315305  0.8751987263537929  0.9566322297545055
  0.1218801137601431  0.1752715902846848  0.1235992491939287
  0.1071206087753895  0.3854352033921404  0.2136844170755666
  0.4657718657229526  0.1282237471608656  0.2644646017928539
  0.9499315550323364  0.6019349079540822  0.0593041994304047
  0.3067090538472236  0.1260059773483333  0.3201720051635348
  0.3659744867428700  0.4301213651959878  0.8865050162441741
  0.6307011199566843  0.2149789874914803  0.1398469663919705
  0.5929937351591805  0.5471895403476138  0.9140832879151791
  0.3978269003894859  0.8922861321882162  0.0491002487818403
  0.9027460108679165  0.6119562364267173  0.7287993822491639
  0.9197112557954037  0.3370503221773665  0.2066073526809898
  0.4147918101193624  0.4320227922636148  0.2247691413454100
  0.5323747370681731  0.0933272643476664  0.4716030750876744
  0.7393125201047539  0.2200980136664353  0.9145122663682558
  0.2325800464198094  0.5834069345222849  0.7387372465167852
  0.3172160464132881  0.8049474152392204  0.5318796129532919
  0.2420610735885041  0.1301433959430408  0.6014474188958845
  0.5645035025225532  0.0429324218723005  0.7557410764136582
  0.3533097526696862  0.6634433715266297  0.0373606089028788
  0.0516632954107951  0.5308308168742294  0.3920182609972042
  0.5991596579600719  0.5694639057393859  0.1590889759114371
  0.3038640082618722  0.6909028342668033  0.3491474549634441
  0.4165971844494928  0.7950886576076759  0.7254209627771555
  0.8591527422510011  0.7475787911330118  0.7768835539631440
  0.5010287697668374  0.7211836925386992  0.2976304872761976
  0.6755834096068507  0.3798880181360455  0.7793562694915924
  0.7767842609820792  0.1389333946156090  0.9921067142917809
  0.2125294005981559  0.2261111049790299  0.5266447946260000
  0.9745435513155274  0.8352648472948392  0.0165687876259119
  0.8286342661174428  0.9962701665675704  0.1238233660407241
  0.1056454040915975  0.5516016720062121  0.5048669686279090
  0.8506498961980911  0.4923009316289268  0.1914193254843516
  0.2008501661219192  0.0936138396825508  0.5064668668228055
  0.5563059470044469  0.0446697091877989  0.3149250452339073
  0.6020082789866019  0.2041109312326434  0.0811862672298375
  0.5610010599346616  0.9135600072010162  0.8068587120142676
  0.0833399491214520  0.6394324218032368  0.2240678893221633
  0.6672487582660517  0.2618858520869519  0.5174286480579549
  0.5105201880614575  0.9314065983790335  0.3001028117407672
  0.5366112624230506  0.4765955455425777  0.7337503254445445
  0.5061146113783533  0.6419665902269429  0.2527097802554504
  0.6552576224132486  0.2494192384236605  0.0819777898317997
  0.8253775606222236  0.7379461801560151  0.1322264535603327
  0.5944577665892893  0.6153988276190460  0.6846965387759368
  0.4373628998847812  0.7198317288430329  0.9104872134614223
  0.1680909312063754  0.8405015278310782  0.8040325492276406
  0.4670296388900697  0.0011296809064564  0.6852361324404772
  0.1934580904618343  0.6622063433671844  0.1791566609449575
  0.1228937047790588  0.6187513623866880  0.7471244866382534
  0.0220816779764830  0.3177844298281521  0.6585311622773508
  0.9843299062632048  0.4755077548081610  0.9355577600757715
  0.3573761466151476  0.9889607729847409  0.6850104327160766
  0.7335777359193181  0.1119990561764559  0.5043432782277778
  0.9465644577907272  0.7150045852984617  0.7762835502403563
  0.6388767386533928  0.2456169057069120  0.2847342247646085
  0.3268280241151498  0.7637777743229055  0.7970259508196258
  0.8036921374320926  0.6454978598093372  0.0619573955944934
  0.9915965435286063  0.7777584197265379  0.3147743180417210
  0.6222207693878564  0.9448510020942306  0.2475583516448142
  0.9160377134494433  0.2254866876969447  0.7996406411582090
  0.6724272633947802  0.1641615027289806  0.8344188085259477
  0.8260281419400169  0.6303064806365939  0.4841916448149177
  0.8609707051136146  0.4065252411376729  0.6183335199431157
  0.2397122508213127  0.0966312327059656  0.8744902675819206
  0.5989514629997749  0.8789738708199124  0.1557729683722943
  0.8721003831074434  0.2608455476806887  0.4993171762792880
  0.1972857864644438  0.3713767176545151  0.5724853397562161
  0.8172076775290726  0.8065546505373689  0.9710398424255516
  0.1800711358926584  0.9842939283863448  0.0116345461170263
  0.6655074439237051  0.6641653871796378  0.2736617352075482
  0.7795175367864200  0.3842808573099508  0.5238088366203109
  0.5386389472572976  0.9541613019466461  0.8673225508557942
  0.8348933738540519  0.3381571074430447  0.1339330097726800
  0.2566082215759639  0.1728395640217326  0.3265052288162424
  0.5347988116989209  0.7593843019979583  0.3519651633214508
  0.6054654326528977  0.5953818691572472  0.6156491085015494
  0.2520862940778388  0.4006645343832276  0.6018185571390613
  0.0422892335240275  0.7166627706334054  0.7690339708089111
  0.2748025802748706  0.2574760109453586  0.0533726495920855
  0.7012182055322010  0.4614502374191882  0.1300808815886834
  0.4970568643033569  0.8504603978156241  0.0044082323676450
  0.2639890308719183  0.7649146156409914  0.2798522205444530
  0.9337838198326697  0.7906344027826919  0.1898648093214984
  0.8518075197680278  0.9951809233101748  0.9501134556022988
  0.2022287407834411  0.5202191681653324  0.9660455470058799
  0.7588171476409992  0.9211784529807228  0.5761143008199804
  0.7877871597907827  0.7067663218927697  0.0900695905037945
  0.4933469716387474  0.6111487826272118  0.8959981850152046
  0.3265065323625054  0.0182430414963088  0.3820876221002978
  0.8140307490651515  0.9770199912618702  0.1942848367460328
  0.5382687028744154  0.2393548184359874  0.7472473179404104
  0.3671613842374567  0.3136641807999378  0.4440299431133636
  0.7435964945436060  0.5454818574988535  0.4270325192152690
  0.8565038617561476  0.5961195273654117  0.4271485348326795
  0.0578679568133105  0.9376149050555630  0.5411259645504606
  0.9369934486857038  0.9849064461532574  0.6882336184502466
  0.6990326426234106  0.2589179007110852  0.3099590553902330
  0.9832865478342681  0.4370658030693451  0.6601348221343204
  0.1934812935853165  0.2543012612659055  0.0728897818614113
  0.9761223320609624  0.3622708138561441  0.0574654310383287
  0.3355103871105699  0.8199070611305742  0.1056660746109114
  0.7308706800169542  0.9480684522248428  0.9529914622860157
  0.2520735938128189  0.1748169878364947  0.4860675596199680
  0.2085813686533785  0.3470567902226029  0.9335102985825051
  0.8717613865906954  0.0112223927217875  0.3506858257747251
  0.3039976776201021  0.8653910677357596  0.2256967262440993
  0.2308956411828891  0.3488421271844614  0.0028248257787968
  0.3813215093394202  0.6049019654696542  0.9948511633498048
  0.0677774922273228  0.0103703564762055  0.7360848650691111
  0.0478748128730913  0.2071470394559775  0.9566615781675132
  0.5594443277431612  0.7658527965085904  0.8946260349745505
  0.0436590278703633  0.4488955598947838  0.6549933377194621
  0.1617897003033807  0.9643017745477228  0.3892146309388384
  0.6288002515517416  0.1213087508109636  0.2305184880048129
  0.4878721890665195  0.5154299764391053  0.1686288675049528
  0.8224412295542803  0.8166727766310792  0.9008775448986550
  0.6159451252357961  0.6028126787634339  0.5508842001430353
  0.2717290788958768  0.0434114332242661  0.0307829633425678
  0.9511311155477642  0.1895478986028640  0.1017305567102592
  0.5269662118902866  0.7024239485813334  0.2221145997353570
  0.5549137223513422  0.4841227803280504  0.5219739649004569
  0.2645589412981190  0.2432155127811412  0.6583798764224802
  0.4514104358337970  0.2537233619633213  0.8764435757908164
  0.9617848129346890  0.9602131085832529  0.4970855050769649
  0.7891908184068234  0.5875850610045782  0.1176184485844785
  0.6229044235365522  0.7042112967288549  0.2345918838559157
  0.9829245344149328  0.0454131402436997  0.0841086969079899
  0.8019624432735764  0.1864826654315958  0.6875002805668394
  0.6592169021000671  0.6602883426399274  0.3774297533490271
  0.1564679540624336  0.2388857280021880  0.3422980269905730
  0.8655413107536195  0.9958968309178358  0.0227756976457310
  0.2471479952812094  0.0899655768230487  0.9847720691556275
  0.7065900079496489  0.0432493791461585  0.4786938080959235
  0.5264572701850171  0.6212464616666821  0.1833068729151322
  0.5928124304960812  0.6643493734236209  0.4597172657729249
  0.0329482817123411  0.6067328148181823  0.9157863152415714
  0.7734019681154608  0.1650613593364460  0.8423817629608860
  0.4406214303447687  0.2787229397946926  0.3070172680500745
  0.0071618699719725  0.3287640882691946  0.0049842325080732
  0.8141193902110380  0.6178668876251264  0.6522878460726137
  0.0936046124372174  0.6231927307257574  0.4197913569682651
  0.6095300016335907  0.2939477083738591  0.9176956753193134
  0.6876663896049297  0.3263971834531259  0.5568248329054944
  0.3317609411279218  0.9115456185386522  0.3896205552451488
  0.6591313149768538  0.5479496940398604  0.9915575861174308
  0.3849989250799906  0.8518481904114347  0.7415678041165276
  0.8733725697718120  0.3689156967982549  0.8253129792159347
  0.0012485776375298  0.0475350947503762  0.6438031006906704
  0.7217858564238654  0.1391426789681399  0.7975634588101455
  0.2429105015776794  0.3400903037953109  0.5240940525426638
  0.1713753463707290  0.5268550007719598  0.5355621683905566
  0.9353499375572639  0.7894276168965492  0.5075560355918431
  0.9281935430615366  0.2205441244418263  0.0466357455948489
  0.4837301521936230  0.5510555606103565  0.8048489416300926
  0.6831112030550075  0.8198980480392698  0.0666223314287187
  0.1389520167050810  0.4938605688663848  0.4711793853080077
  0.0276834725099546  0.3903432412933778  0.4119112335872984
  0.0978063331068717  0.4832786782564640  0.4182406583337537
  0.4070135495678074  0.3789763178796758  0.1740416012750600
  0.0993712869508740  0.2043717149736092  0.9116583939124946
  0.2921316077201929  0.9559854473429642  0.1446428806924971
  0.3419652130075297  0.9093535006543676  0.1368560632908297
  0.3213110066439996  0.1033699244237915  0.2582783436702593
  0.6507631438750052  0.2469682362515364  0.2095844847469662
  0.0156268765210158  0.7413751027346713  0.3658641694848380
  0.6556964333295667  0.9303592920671289  0.5807161915702983
  0.9151225494844318  0.3824659484700107  0.5818793272787187
  0.3570136862656648  0.5360872368253088  0.3632596840512856
  0.2514264575815778  0.0210614039552082  0.3693556995282991
  0.8868303813914287  0.0325918456088025  0.8647068921685587
  0.2950640467714365  0.1750894848717383  0.4375114296704097
  0.9240422323880829  0.7733569026589386  0.5656384816316921
  0.0364131588902454  0.4017215614258366  0.5390734378488580
  0.4197041311011783  0.8291199302108723  0.0094689356132244
  0.7222949843500296  0.0167474095442466  0.3029680622931958
  0.1686411953281832  0.5456942982955499  0.8317276186438138
  0.1657816058909541  0.9694329795691925  0.6981997138055075
  0.6719121763999850  0.0746041779734262  0.7086382143264940
  0.7778481781977928  0.2724152284045617  0.8261619230307837
  0.9459444166996678  0.1773874879567606  0.8370377447009304
  0.4329972489615049  0.6274774872923673  0.7829442992026975
  0.0160941780703453  0.3020576283389103  0.7172020663445144
  0.2311747490598953  0.4258707615414695  0.0722460395059765
  0.6145143156133054  0.0564103081043682  0.3449400918006798
  0.5907119705361776  0.1826231629001682  0.4223396409357910
  0.7009879620179694  0.5407182525235609  0.1480059648738251
  0.8977575255401602  0.7245423725958671  0.5205144400160002
  0.8719263038150593  0.2587631139033941  0.3358633129502430
  0.1834962595650624  0.8838607540275097  0.8617097041122210
  0.6086067556817485  0.2870949842911515  0.2198611779325305
  0.7237407288882769  0.2634522305207987  0.1995872905022869
  0.9395168907858741  0.4781328362726693  0.4224873513494828
  0.9880196870711845  0.0793460044150814  0.7757423178319425
  0.2019099678558596  0.4425253900165638  0.6868997554255468
  0.4186446459427590  0.2456730699287595  0.8010387876357657
  0.0357669072082542  0.8728781905405096  0.9450931637457243
  0.5518318037879070  0.5428352488989154  0.7053063500781657
  0.4698009410011122  0.4954825528593950  0.9202369946253769
  0.5663457485898382  0.2932681138406684  0.8569096743299212
  0.4791165667711167  0.7273812728916927  0.9810607612122181
  0.7395635458708363  0.8244247055481209  0.8016249365239860
  0.2516304253275645  0.7242782368787963  0.3263909636752423
  0.1490926010386946  0.9258204184675843  0.5542451148509399
  0.1614312250810449  0.6187005613266084  0.9857164325569311
  0.5588741938518869  0.2348614386010228  0.3744806475277062
  0.3783642842870894  0.9892407747220417  0.0425718935646004
  0.5496121252112037  0.1530505585571605  0.1605528956090091
  0.6079252616954316  0.1040745470452326  0.1635740502944972
  0.6746010571430245  0.3528827854022725  0.4604704920478880
  0.1105185535082091  0.9483376531502501  0.0032568602913380
  0.8147374201164344  0.1899391487026706  0.0350995264379959
  0.6138330078478832  0.0395726384563314  0.8055287223841781
  0.6479683406870491  0.3082175548269916  0.2802121482897676
  0.9085473876453042  0.9666739307930227  0.4004223727317338
  0.1283666251423394  0.0927784899930163  0.9438020570384523
  0.9812826620303663  0.6407379792519390  0.0202336916501184
  0.9290789861717507  0.3964235024826979  0.8030675525512021
  0.5988425610205427  0.3213342842558395  0.6436858560153548
  0.2526174519358483  0.6509095134982550  0.8403459961398081
  0.5756921380516504  0.3030624762868188  0.1546529707341357
  0.2958636979154531  0.1198694215825394  0.7701654489652292
  0.8722650768667337  0.1915722873272745  0.8485244453941162
  0.0836546624335286  0.7876748313470877  0.5657604935619125
  0.7016895678609161  0.5968530142255344  0.4593374868802332
  0.2179854121041961  0.3542782130547665  0.4597355154206074
  0.9203592300206709  0.9311584776589087  0.0702089970717698
  0.2839491360945590  0.9443482056784870  0.0675220344039460
  0.0146823571597129  0.1217547964090414  0.7466273513377090
  0.1006985298227663  0.9431198926569144  0.1539584319741437
  0.4133783935284385  0.0811783714639014  0.7434353762254945
  0.6970991483177129  0.9721407058667776  0.2427251745432542
  0.9782842076719446  0.8805432660322537  0.9547940060585464
  0.1848236421026257  0.0882853801783491  0.9669213811179265
  0.9803435128141151  0.8598849628090398  0.5501477709927760
  0.1960852203561846  0.6597613375078701  0.9368375445526443
  0.1942995668188051  0.6677060422951258  0.6434719999398585
  0.2651045126533799  0.2098252497417495  0.0015792206922990
  0.6062456982017740  0.9802624694807330  0.4717623684410178
  0.1004760330977550  0.9749926416252337  0.2240394720136291
  0.9784691622645804  0.8077953286263506  0.5778699541712206
  0.1670111479704317  0.3224761162939039  0.6164367856420356
  0.3558605319972014  0.3066225356195368  0.0269939919750154
  0.4899246040355852  0.0547749115514158  0.8813788764310410
  0.0595257976395990  0.2942734087187243  0.9002271125575776
  0.4822934207466800  0.9836491571604666  0.1734474448883667
  0.7699417604264917  0.5884716586843396  0.4766748756437284
  0.0405414154169327  0.7468434420639419  0.0106947009001809
  0.5668107421639538  0.8186943161758005  0.2373249734393616
  0.0748666377024444  0.4108612084503308  0.4440665168970867
  0.7811058520416647  0.8175489086965575  0.7491396946725539
  0.2486840569533959  0.4772489946621498  0.7144977665113921
  0.8052531899483505  0.3668746785479460  0.5748202145783929
  0.0675733615380532  0.4401056729547525  0.8435606902011786
  0.9346951104030710  0.2599415197251815  0.5147401770008838
  0.6013257049190955  0.5080626681580181  0.0760356812687498
  0.5698109469987859  0.4738468878923332  0.8035357863688858
  0.7896992014494086  0.7791739964798405  0.7992529292554020
  0.6261169574355437  0.4574517768561207  0.1991770644933084
  0.4578206804485607  0.3190917005090858  0.2604367183284206
  0.6227957077782146  0.0584079322306850  0.1212002305845656
  0.4444873388749747  0.8980878814073933  0.0047775727062772
  0.1442977202641338  0.8488956953698298  0.9194816826763929
  0.3314652968354645  0.4952352142670282  0.3116148570977244
  0.1392629031777711  0.2506079795051049  0.7472739847725344
  0.3297801839591442  0.9197516284853788  0.4487237897414942
  0.5132812852674693  0.8694608136573259  0.0734009070066713
  0.5527135224802266  0.0943324009379617  0.3574421433002363
  0.2489128479446487  0.9491320714871250  0.7671786147906380
  0.0252816838647825  0.0216460211765694  0.8040836482411516
  0.4735562715640333  0.7002193166529236  0.8633601426579445
  0.5911364796877813  0.4830307437572339  0.9125653641581385
  0.7557542608530043  0.6378408290602449  0.7295496289898111
  0.9317695056586636  0.5505538070316233  0.2195143787602937
  0.3632277657899307  0.7723285908782954  0.4826789724871081
  0.6768199908361486  0.4099337911504468  0.4845429319107174
  0.2471425762531731  0.2010154557880726  0.2665325475845393
  0.0917164815414735  0.7606135833681830  0.6891999559171268
  0.2875528083608203  0.3649296385467757  0.6443261579397597
  0.0504386788739829  0.5986764519824526  0.6867654529162748
  0.6380904395475275  0.4634293185999133  0.9656567922660626
  0.0800452452526651  0.1458743687803244  0.3472896035851817
  0.5761510235804191  0.2979090551126090  0.7779553669447936
  0.6344617391930156  0.6007455895878642  0.9448848942970696
  0.7886737202263652  0.8801641947789619  0.2668130148740769
  0.4854929564272203  0.9746960289841239  0.8123041089293085
  0.1544169078169441  0.8664980392223325  0.6029434803198851
  0.0193278538602907  0.9421447655638032  0.0991953733826769
  0.4467575205583258  0.2214672214169527  0.1716076383148026
  0.5738351060453247  0.0130418569903646  0.0516459954896756
  0.9997375996272545  0.2980328547634188  0.1262378409843490
  0.3450412842348706  0.0240454215387668  0.9131871929697870
  0.9896792131965703  0.7558481161839432  0.0553295192755929
  0.5893458912966916  0.5232571385976137  0.8439409532681966
  0.0522177727803459  0.5062292862053219  0.6767897485628461
  0.1772438744027527  0.3891928803383351  0.7150849582366228
  0.9744360646150949  0.4778110465665933  0.0657695374968714
  0.1988198928172357  0.8167118085306125  0.7539885143292704
  0.5620541763384815  0.8458833861768410  0.5664634774394801
  0.1226018128376301  0.3076553167016533  0.7912443134570785
  0.5128968508524095  0.1917130889457722  0.2613381764355807
  0.7039075332053878  0.8802242323954196  0.5585294989757603
  0.7982783235807960  0.1762268848525084  0.9309332248646556
  0.6088397552652220  0.1699613524950315  0.5959440700384067
  0.0911546996573273  0.2991802734283249  0.6322983738148757
  0.5084890395185688  0.7311100111108481  0.5541247416645929
  0.7998363220743805  0.7778646401248861  0.2566290038278147
  0.8834611239874407  0.1289193194468233  0.1952297215658415
  0.6194536758690347  0.6763372317886769  0.6896855455221984
  0.8393320606122373  0.2285132241662902  0.9393370014015746
  0.6235921373007526  0.1502962118585824  0.4811789631801394
  0.3214804676581946  0.1329417838832203  0.4909967149706666
  0.4089865599473646  0.5498057576975335  0.8478516665456721
  0.0355432675525015  0.4991192607123797  0.9885914597063324
  0.0456729370139234  0.0584420944538214  0.0745683490732821
  0.3326593452124084  0.7136721375525620  0.9732665229078963
  0.5200949588285543  0.9997603185764103  0.2620572125542731
  0.9136194489106108  0.9779579486643953  0.8952514392273778
  0.6924031787713826  0.5981472866880165  0.7109545787917357
  0.1859891800605880  0.0968527424602349  0.8383482183812532
  0.1934987983494201  0.2591086095293679  0.8601344988079644
  0.0511134083862991  0.7790834931250067  0.7572476779403000
  0.4645008336281315  0.3738659323542359  0.0728520674747081
  0.3634984564824955  0.0846914100207026  0.4752378089991750
  0.5319823323988193  0.5593320737878241  0.3324367739990392
  0.2702301496700975  0.9659245779126698  0.4588427352071414
  0.0035251781223459  0.2872405717866435  0.0546995805439792
  0.7889734613785063  0.6911011222755011  0.8916917895806282
  0.0796454196806567  0.4286646336249520  0.3273546568054177
  0.8528204124585882  0.6163298203601085  0.1488677113751861
  0.9819176752813611  0.5551784167310970  0.6040126117206510
  0.9217144712040843  0.6772327308272058  0.7262624577562157
  0.6274011367255321  0.9169428214861398  0.3369087942973794
  0.9391914511502616  0.2858868389924772  0.1497717858859169
  0.6501667900817544  0.3627896252688337  0.6496817218951878
  0.0225781265874780  0.6294558235895135  0.3782697958051086
  0.6508899230601305  0.8654881260660877  0.4581303657964800
  0.5369226610032012  0.1561130729033659  0.5253948799806402
  0.2475278114180801  0.3909217923690935  0.1364136955554226
  0.9746298088339614  0.1798657156236929  0.9570390851652893
  0.8927063210150623  0.5650218670050955  0.0600646929757842
  0.1262520868827951  0.5315854584279923  0.3784715475224480
  0.2932991754859077  0.0729226498493293  0.8223277837852170
  0.7084692747308042  0.4674817832224495  0.2487963481529120
  0.7498202947985761  0.9090013196982734  0.4614552653833457
  0.0739160405566902  0.1938508303287986  0.8335699391994567
  0.3271286218834067  0.6875747689247275  0.4116606919955422
  0.1232093305735195  0.5432675420839183  0.8897006412859253
  0.7192054307299108  0.5294045510415698  0.2466692399829741
  0.4754645888047649  0.0851896905797493  0.4506525912806449
  0.9835949296359242  0.7164291751430688  0.1063919543474848
  0.5185802008267237  0.0049382755190175  0.7574052208172330
  0.9720280049812930  0.9671703212099881  0.7784463941999911
  0.4123930242861176  0.8531752749955664  0.6758412883018589
  0.7681526990467388  0.6834939242378358  0.2776996559782068
  0.4284383007495094  0.8077002069933277  0.5059152805326452
  0.3751336869613098  0.0906081320202797  0.9049412572632325
  0.3709251319848193  0.6586813308068529  0.2096928466856037
  0.3089698686195704  0.5478497679077536  0.9883434134745656
  0.7813775855712399  0.5789188992269987  0.0246881187294299
  0.0120805544709251  0.4766353223256899  0.8844010925756288
  0.1836233739477982  0.3958670372050959  0.1640206266221250
  0.9417581709863647  0.1036752615138190  0.2160882681171478
  0.3844603370082817  0.7525803864117565  0.6704421486570662
  0.1813289463039544  0.1283972398574314  0.5729679498269721
  0.9496230987423225  0.2808904951429637  0.2445459307192884
  0.1294517063627380  0.2347015120966374  0.4004246073824704
  0.5854141723022916  0.7423121662769019  0.7864329614443797
  0.7589078744609067  0.8478382586412525  0.9027324539867809
  0.1710327371686234  0.2917000780408585  0.1392312083814898
  0.8851672798248643  0.0083732380560059  0.2016211764923280
  0.1767911341635097  0.4899958893940840  0.7312942953082628
  0.5494336138615252  0.0887178688952913  0.9047183880964317
  0.2842577227391992  0.9358360485808409  0.2077300970773455
  0.7348538704666547  0.8864878839218598  0.8479355404366540
  0.7503918439686504  0.9534699010087301  0.8284011175572535
  0.9866695110961075  0.7758355772560184  0.9959313190275380
  0.9317796360753365  0.3944835276898641  0.6709920962033530
  0.3099929848372510  0.4229089554551287  0.5563912361742287
  0.2942636321217514  0.5128878377611051  0.3594830125738295
  0.8338916544171747  0.4816049248547217  0.5521134815132602
  0.5954083870126554  0.9774057664673719  0.7754641038152310
  0.4922365736877116  0.7499140011527993  0.8056137136005281
  0.5175241793769462  0.8549319339396381  0.3095173952942258
  0.4727643113429686  0.7104546129335917  0.6120421959917199
  0.9459181223093334  0.4221455615193140  0.7281871624356826
  0.0124159871853005  0.4267851061345442  0.5985020374924579
  0.9008994444758741  0.9789338206410856  0.5007125666876031
  0.5993149289420892  0.0821836477198677  0.5758782844580124
  0.7840708611273948  0.4440182856853542  0.3530167527139340
  0.0297504988359724  0.8332645369321160  0.2797592590738088
  0.2230596521539709  0.3627224740141977  0.0745659561347850
  0.6128594450102877  0.4260782488623664  0.3128617922087688
  0.5983830050965530  0.0796643490346050  0.4619255103866923
  0.3549496883569475  0.5867528025818960  0.8774966177062786
  0.0744367188338494  0.2253052713013086  0.6117334045040954
  0.7218193761849150  0.8351994465166137  0.0174547044355270
  0.3010609741103694  0.3277448268240349  0.0222251937645213
  0.5214350788753165  0.7508348262330101  0.7374570151097649
  0.9687952847373137  0.4550215196916682  0.9932412464707723
  0.8235755382681983  0.0965541186334621  0.9800889860952120
  0.0282781316930636  0.6598067009178239  0.4269064849137226
  0.6503340909335705  0.8209817046698238  0.5046868930227150
  0.7817841430285924  0.8693050585009822  0.6897130317262591
  0.9355369033355627  0.8976341728194978  0.4492423776891101
  0.2606770177709672  0.7773999817483812  0.8295708827295259
  0.4416313062568347  0.7432959340195281  0.7638690225613182
  0.3934977860057537  0.0566864178249694  0.5216004430298277
  0.7445292377610789  0.8071720845359021  0.4406566260938707
  0.8721057462692113  0.4365747013257897  0.1030405275941663
  0.9067986989555267  0.4690304334271191  0.3077797681255946
  0.3204644464566029  0.9679317412043187  0.2542522851705942
  0.4673957119249100  0.4553668104746578  0.5714225771100496
  0.4854982078564515  0.2028577949658049  0.7234178963451905
  0.0584889662530224  0.2383571772367045  0.3761588702309218
  0.6087656021049447  0.4173789397655269  0.8054594482113422
  0.3874987916148894  0.0240353656104519  0.8087639752323256
  0.9327222862444084  0.7643396400064543  0.0964114268728829
  0.6756666131026116  0.1987940639791381  0.0516367077225515
  0.1283929195326739  0.8082287763809006  0.6472776846327120
  0.0792999985430408  0.3131839916008131  0.3743528627497494
  0.5083879215727358  0.9737627643481457  0.0523782020811471
  0.3263909636752423  0.6073551278041572  0.1420354995240318
  0.7475787911330118  0.5594436201037613  0.7386892760143053
  0.9011326675244213  0.1019437423905345  0.6208577441710437
  0.9115123967310342  0.3561707015194468  0.4568672294675949
  0.8186048556579770  0.9331292161435504  0.8416438812876479
  0.9716414104038548  0.8868493759226901  0.0697900978246198
  0.5321900804289689  0.1110153070559192  0.7786123542613654
  0.3101397455243797  0.8534300251795433  0.4760060819224314
  0.7129001402114112  0.0511744981508120  0.1679474666290832
  0.5832766543843388  0.4683370957918980  0.3575291457022495
  0.3004230930575960  0.0751854478742049  0.5205878110485199
  0.0384371821561499  0.3897124738787826  0.2089252627796578
  0.2185164209854898  0.2403528134549702  0.4641679079125512
  0.9642100793791629  0.8290257024381440  0.1233700019614838
  0.9130282348140540  0.7381845429012566  0.7167523056395868
  0.3796874954766111  0.6632704095596138  0.3678118910668922
  0.6202200120949859  0.9230463230431210  0.4575276060044506
  0.5783571080318077  0.2970723832547221  0.2779079999152195
  0.7372586526127093  0.3316531564740579  0.4263762767822761
  0.1438833694623373  0.2161401678805062  0.8576083006385523
  0.3387669808732524  0.5282608567945581  0.6557210144876696
  0.8185587473644443  0.2978872114016584  0.0704324714564784
  0.7564936322934002  0.7509304692845384  0.0535088282768718
  0.2878639089875394  0.6007240996966136  0.8497774140621495
  0.9144922289999839  0.4572923717702404  0.9432440647495138
  0.3597957891886010  0.4956110080325728  0.0902273754678907
  0.8151325063666721  0.2028652438015937  0.2461393298049591
  0.6118195875341718  0.4966316475123536  0.1438013484692579
  0.7672865484212176  0.3178904640056057  0.5378757767865565
  0.7298873592044751  0.0149291883001418  0.8368688051052405
  0.4919793653879245  0.3054426027864126  0.9715265493559914
  0.2009081366864456  0.0979375350382466  0.4379629408517476
  0.7097180720507956  0.8600233621779956  0.5038346717201189
  0.2592882568265041  0.1404718026710689  0.0349351585652714
  0.6464260592369792  0.5246664583288538  0.8826814543454274
  0.0449304044738397  0.7005391696616945  0.6976304737745277
  0.4753806031812463  0.6117278923656118  0.5231016441505226
  0.8069680609236469  0.0325094917458738  0.7650204635975504
  0.0798686892223811  0.2069497197959324  0.4288239642224744
  0.6498900658322004  0.6120499055367613  0.0058955626504146
  0.5522306517002180  0.6242179884837272  0.5883084174480281
  0.5892993360730115  0.9997301507914658  0.2031090069527820
  0.7311725813314739  0.0058130569010686  0.5258104877734759
  0.1411454753798076  0.4468551003071591  0.1971406458990991
  0.4298437470861395  0.6939243800161704  0.0304425631858258
  0.3059066652560546  0.4217549073263706  0.1467446255765741
  0.6388539452158789  0.0264954693288055  0.5105140427719318
  0.6403650905323518  0.2294068237516931  0.5708130016332735
  0.9044196152929431  0.5153333650389246  0.3552060027964399
  0.6368123683028858  0.7468354718096479  0.9230060248415037
  0.8422215385030691  0.9578486246388156  0.4950605763119598
  0.9264034388447732  0.3268744303621141  0.5331040898244330
  0.6619509227879866  0.5716381091735985  0.2106632996342574
  0.2247394949789706  0.4968978689034451  0.1235144535095180
  0.6762508997818847  0.9828749996569371  0.4722553696376992
  0.2926631566420814  0.5474528194485687  0.2143228567910243
  0.5359656345810567  0.7065688532560087  0.0379386664932236
  0.8324076973513310  0.6650328041072429  0.9891905695688255
  0.0320026054537298  0.5632153753495969  0.9592916875961790
  0.3690324572992443  0.4790149274067785  0.2198859825557072
  0.0711244869233470  0.5640803714055708  0.8499923129746564
  0.2341413224011410  0.9005379524750439  0.1032238993091969
  0.4800667402643354  0.9647198777005479  0.9834546680580212
  0.1165881349292171  0.4875239559933933  0.2491159218303408
  0.4449399673816808  0.9432750519063950  0.1379695990639415
  0.0580821294643278  0.4419425186160905  0.2565748507916301
  0.0795726352439555  0.0093865916432808  0.8774500624825985
  0.7830625867150234  0.7577159117579837  0.4819935306178231
  0.0959884726657504  0.6146488415876510  0.4776900029850255
  0.6838845411866002  0.6208552860552333  0.3318031387826653
  0.0278560946238376  0.4846638265155696  0.2177552989445907
  0.5381097447186826  0.0752256808985091  0.6145342784932194
  0.7816118514567976  0.7963419987174988  0.8641696821314707
  0.8565220369154722  0.2102758484407032  0.6318167320927722
  0.4891761450155271  0.3290434196112745  0.6626727894642788
  0.0380868797033311  0.8600437719880569  0.5900936426773498
  0.5332427126584625  0.1633423542572867  0.7480456841602535
  0.8101581738269145  0.9124964624270919  0.5456377988760919
  0.2502766552892193  0.2598895268513757  0.1097681205466669
  0.9933765918170547  0.5379840083705677  0.4389515503376365
  0.7851192102763098  0.5652035441099843  0.6223611426982962
  0.5705592942863071  0.6548125544748681  0.7339497307786106
  0.3615321128109693  0.8117525971275061  0.6907344160896187
  0.9277887733247734  0.0182389772252816  0.2451888397362194
  0.3207063101546652  0.1625585505114107  0.5964688777639062
  0.8750237532011141  0.8699024551312435  0.8945566118249991
  0.0712433982756704  0.0993445083862133  0.1806486441313637
  0.8627988728812587  0.1858777454771877  0.7832606512586476
  0.5901000486761281  0.8052896147553577  0.6152801676649304
  0.9352636800388299  0.4369577949504075  0.6061494964875617
  0.3474096415739181  0.4817072346142808  0.1544429973642943
  0.5559214008568504  0.9044084420392601  0.3312255560556021
  0.0528934427081805  0.8106181394368726  0.0085202280276113
  0.4073355999831361  0.1523262430761028  0.7164813914819483
  0.0466494048974766  0.1176004224018696  0.4893502987962691
  0.3902696095516055  0.5690650578270748  0.4231408749574128
  0.2420026560938305  0.8508995811737315  0.8989697490764289
  0.9725386971629729  0.2599198808572151  0.8173115887883263
  0.3831937369707550  0.5040072240011663  0.4105343535359184
  0.8088506796809072  0.2178270312332368  0.8760787318138814
  0.6484345633190698  0.2878643931618656  0.1563276366182622
  0.3737177377662177  0.7049861991159633  0.9226221863333069
  0.5184553210947246  0.9348836404368853  0.1033294958675478
  0.6116882645592153  0.3993046004332672  0.4923195537183988
  0.0668250561502332  0.6523203974850108  0.6308446590223344
  0.9609825733202355  0.0170059667816399  0.7432669580483097
  0.0457009399809669  0.4032698019445377  0.1467771676779264
  0.7602451639500691  0.8044992932781665  0.5299796756528228
  0.1620907077576059  0.7004295972872413  0.7536575625551742
  0.6910489804249795  0.8870199542622536  0.0625298805245637
  0.4296748074904495  0.0712349066028711  0.9440349821335680
  0.2274114109985010  0.4752821668162974  0.3784367987034933
  0.8065453394926329  0.9316115158515834  0.7051098497900573
  0.8297340122333006  0.6376099896391501  0.7482546240041292
  0.8403345249326936  0.2640832772667360  0.4276700278262531
  0.6066991833245958  0.5213820431645002  0.2177457644347810
  0.6300005569507481  0.5395973889582418  0.7815654452098334
  0.2679442136990529  0.7921065161996316  0.7548712013702427
  0.9152287698827800  0.3445064205810561  0.7129351497396186
  0.9107891892643001  0.5888919964879012  0.6073938617502589
  0.0100819561765528  0.6471421158213559  0.6653535509763084
  0.3648093770929656  0.7245489275713611  0.3703116831134332
  0.4840729103724443  0.1143831957363309  0.1375470172985984
  0.2500408437702355  0.7884185231122410  0.3567776326595179
  0.3032307641093772  0.9941897812201177  0.0343789958966233
  0.4008325428744438  0.3573270215431205  0.0577012891125362
  0.0399818355948665  0.8287430191199593  0.4621211540586850
  0.8145292251561377  0.7747360546052341  0.0419620387564823
  0.6721053247119885  0.1405837400508850  0.2719389312221366
  0.4263781762354023  0.7713483240884899  0.3869770379120632
  0.9675776235509195  0.1146604600264794  0.8351845488450359
  0.9488204866860797  0.6230392102201503  0.5040496823651625
  0.4160876095931814  0.3386184138434448  0.1232669938735695
  0.4425312745968369  0.3552695413657184  0.9383916696516186
  0.1903591885528007  0.6568577068290398  0.4374664387022455
  0.0560710601894122  0.8589419401981783  0.1229124199789781
  0.3193200073260123  0.5789005750909583  0.3866789355037956
  0.0467561839585090  0.9850736725167161  0.1913799025209394
  0.7050616558225038  0.1948914140664039  0.4173390884940568
  0.7237891463209041  0.6328117475774395  0.2846053971496413
  0.2365030316542470  0.5624927265455468  0.8516599583310518
  0.5151499002134465  0.2562304166247562  0.1363800640618362
  0.1524310295735617  0.6034391630974505  0.9154434453302132
  0.0996943522700788  0.8968098846511096  0.3035562037449896
  0.2192212856940940  0.6833168654111361  0.5281598505812621
  0.1829978579624341  0.0311025114146236  0.3428711776603419
  0.7054479524465107  0.7889368131064254  0.5050725564956798
  0.5453945943875878  0.8475187035859130  0.1367353269737381
  0.5910026985970144  0.5376062034193599  0.3542801497520716
  0.5693725457684363  0.9611897999318798  0.2843912244986240
  0.2279917870389850  0.9435417947159919  0.1648858647652620
  0.1575054092890076  0.2029054302706742  0.4789402528279959
  0.2465474701399167  0.3476482277842333  0.7013571263196621
  0.2761459033210220  0.1496724649717181  0.2581693858247586
  0.3090949345724643  0.6624964755211580  0.1908022266834288
  0.0696612376209960  0.7355061650166794  0.1934838448115742
  0.5552951399879074  0.9390181167414563  0.5095446140381990
  0.2166769868537152  0.7888094380144370  0.0538747150908175
  0.0913140861211181  0.2478090049691071  0.2143493932685218
  0.3814199084601902  0.7656770784723326  0.8393144813597757
  0.3987783029406098  0.9527582392374685  0.2599882797918457
  0.8039932938630338  0.6373589638730677  0.4255913557110319
  0.7709976328995534  0.1452640018647458  0.1463237849765966
  0.4971622280855895  0.6116256943385894  0.7883630292856145
  0.9193803040213073  0.7620619349989566  0.8008864589438849
  0.5717209774717488  0.2405123302733872  0.9322153184806230
  0.6212133143474218  0.6238504256817291  0.8250606126594103
  0.8502331338357080  0.3029737606525743  0.6767616664519224
  0.6209245974722480  0.3314366560618566  0.5856441551072706
  0.4139847287616464  0.8575723972500503  0.2083474752096104
  0.4696481653790840  0.5492821045415812  0.8787265694717243
  0.3017758575031096  0.3821302294410097  0.7152873431050044
  0.8749278121961545  0.2871256921166908  0.1818896946621349
  0.1596213442052623  0.9270870185051110  0.3156022188954666
  0.7057331683688637  0.2176933246308279  0.5801727245111478
  0.1677673351576207  0.7453271570507749  0.6296401822752862
  0.9654274426121258  0.4726079230355829  0.3398597995718265
  0.4194652469374316  0.9050067325298160  0.7636682019484523
  0.2903082816958116  0.4019703525411824  0.9817385307806406
  0.0195763574971302  0.7568084200938349  0.5837971790292599
  0.5013954014643620  0.1145131127435323  0.6570767770895882
  0.1551378433887626  0.0880895595965064  0.3076499162957064
  0.3131633583256782  0.8402613773652474  0.7133073680639846
  0.0047108791476840  0.9161558519850536  0.8260027414099773
  0.6659426793988442  0.5114149049722287  0.2071786597639010
  0.9344081067601286  0.3368289427777236  0.2690587085097725
  0.8292980318745824  0.3030526624456671  0.2805868433520335
  0.8889141932033442  0.4946086926888326  0.2541583181071185
  0.8961069380177211  0.6564938312007571  0.3961421599549551
  0.0162480570511747  0.2021087772830626  0.4231536497107906
  0.6808194197478687  0.6957334787641951  0.7022937429317453
  0.7044261956413617  0.8957297289733763  0.9035874313586189
  0.3782304287079647  0.0999568678653654  0.0387347934068077
  0.2492981575979137  0.6874425520894765  0.4708556589046266
  0.0676479942171345  0.0574848259445138  0.1350043851352272
  0.2350746056592086  0.3281887401928681  0.1271207328683055
  0.2280341895367128  0.2049510667991722  0.9538565700745264
  0.2822033152065600  0.9045162266931238  0.8184207204372780
  0.5992049096374886  0.1343813272656734  0.0514313479753767
  0.3923177041959138  0.2488399424643659  0.0615942834718791
  0.3844305416651266  0.1890489010933726  0.2444817403768785
  0.6197840689804467  0.5877157135843136  0.8766369475678936
  0.8427615046093989  0.4720474726308339  0.3489065968582135
  0.1589283976339201  0.3083075740074991  0.5527672285862639
  0.7002094097013245  0.4360387575907859  0.8213670329451781
  0.0020527853740642  0.9004818627415544  0.7492832337382040
  0.3849181797000401  0.6123946004128878  0.7541667649696963
  0.3604927767533586  0.1214955862346360  0.7507689785246372
  0.3253364319926225  0.3917714438233424  0.9185782133835698
  0.1669674419264409  0.9260880551374756  0.0151525148720152
  0.1367397217868534  0.7823796029615487  0.9614235443989324
  0.9278061291121613  0.8394499756827739  0.9200666397508870
  0.2090950962356423  0.6049191350361474  0.6417154899725026
  0.6841988820568874  0.6697173024464584  0.1723045327691129
  0.3631226254727718  0.4573283124029213  0.4504478972731688
  0.5740847537767862  0.0918312774120236  0.9720245785168302
  0.6913756118743182  0.6527198785483639  0.9484482683617136
  0.6739932321426588  0.1947807243665824  0.5219865534329399
  0.2260639910926658  0.9191084960033742  0.3026795502610063
  0.2046954599990797  0.6313514778094040  0.1163388503285003
  0.3453836327277237  0.1826681724904220  0.7534104101837019
  0.6960874474408787  0.5722109246457568  0.0963431210486997
  0.3241080817268712  0.7478456829193244  0.4375767932044564
  0.0654517701621213  0.1347812925033528  0.4168117481643890
  0.2363969788547040  0.1435260394985040  0.0946317044710002
  0.4754105847452961  0.4660068392479101  0.9912994839573491
  0.7172475787311838  0.9548001141038933  0.4145346018195753
  0.4928934120275676  0.3229898997424361  0.1192825278107402
  0.7251415569467178  0.2468796695940075  0.0771143658014148
  0.7226491764917867  0.3574312679999847  0.5028621517195337
  0.6490277141129316  0.4985544527386943  0.6714495292091429
  0.9884373432938625  0.9288549996795816  0.6827993203005306
  0.1334986681578353  0.4836202818657382  0.3159497815733718
  0.6719999981739349  0.9531879625741243  0.0963225901950568
  0.9786685675986464  0.6987790097648021  0.2128557899603315
  0.7189328778283988  0.7177589413080846  0.6604158667086316
  0.2917328156741503  0.4478164470540611  0.4485057995621351
  0.2743320745622713  0.0320758158707277  0.8672410605922648
  0.2167324806803417  0.9306367612002615  0.5479956533566772
  0.1934848876485845  0.1654791272916606  0.5190087695938321
  0.3659575778856295  0.7884037744173792  0.3834379842962696
  0.5817273337844483  0.9636561094615500  0.3638382723711803
  0.3820704897779836  0.2833559853006972  0.1153619727589787
  0.0186945189251095  0.6506441114791004  0.1993335086669626
  0.8265278843330872  0.1642852651356114  0.1913463268936214
  0.4067971981323218  0.5303919314695537  0.2515202570462482
  0.2130541338352976  0.1893102248749330  0.6137170294746517
  0.1477050784631814  0.7676172022418822  0.7397388914653046
  0.8302006073071108  0.2530637675542234  0.6976887236703961
  0.9197622058321989  0.0067993851809972  0.0703367073613687
  0.0222421002940007  0.1768154732344495  0.4812671946400577
  0.5312544694097172  0.2320325197451540  0.6173499384213841
  0.9018199716026535  0.2377485514864915  0.0976181755148468
  0.7362009179307003  0.4290201293129723  0.5044849178403017
  0.5196422930776692  0.5644105782960880  0.2645691648252391
  0.4969322825247894  0.2497483466108990  0.9429249566243216
  0.4085954960684529  0.9988972964619205  0.0964637083890755
  0.8528648820082473  0.8994615212152051  0.2611907825974099
  0.0658843752671227  0.3329006502477865  0.8076991641563173
  0.6290877766131893  0.3149443749627792  0.7012405520395675
  0.7314626389970896  0.5918247893588447  0.5808344790826243
  0.3732914036498460  0.0616336272914111  0.2487913201887546
  0.0341381401191538  0.7603098943330738  0.2492079708186008
  0.1072095478747077  0.3416354530471596  0.5750919853521471
  0.8665854885544929  0.6638192397805323  0.6860231019415635
  0.1694074756878661  0.1553177141509726  0.9325648923441912
  0.9110641257932645  0.1558419073475196  0.3775511321282056
  0.4099749087240009  0.3759335057041318  0.7356698159389592
  0.1970304962398723  0.9900068129945615  0.2835372154754385
  0.9601627544533207  0.7540399857845710  0.6223418129694244
  0.8920085140783678  0.6614647372760519  0.5096712070024295
  0.4900138783325140  0.5905146136319536  0.0473943303760574
  0.6982353937289358  0.3771176843736556  0.6951007746522950
  0.4519689867854198  0.0320895589727581  0.8210345169155663
  0.8466632047955700  0.8207949623565987  0.7807613433864329
  0.9329750997310802  0.3315404555885734  0.6014031728112991
  0.8172533388924581  0.0317077083726126  0.9968905801004190
  0.9772496388692388  0.7157864895912116  0.4490665106761367
  0.0054285241380989  0.5796357379391335  0.0159064534419005
  0.1101702087025461  0.2391480387544904  0.1425788455396008
  0.8364910746423907  0.7147670419251571  0.4969329901641893
  0.4802048789240386  0.2340053811479954  0.0065144846702847
  0.3089366840561313  0.7576243655661393  0.8613581935513478
  0.8681376769561621  0.9388936466954255  0.1952669843668749
  0.7621569076552636  0.5905803496077897  0.6877942116270653
  0.1140274858942817  0.9113993234037603  0.8548216166816061
  0.8641770564789016  0.6164807337731896  0.2125640563066633
  0.5542776662633369  0.9377442913332144  0.4376289350549780
  0.9131997070139122  0.1316829213238691  0.0532339615807429
  0.6431439532117199  0.3613182939796519  0.9093332398210221
  0.7391975845685328  0.1269152381109821  0.2932474619434440
  0.9487139683342999  0.6372709186340441  0.3468858021970711
  0.2675197417916284  0.6083187464459747  0.6814005779161106
  0.1207816805015931  0.7207219392081518  0.9894164182699415
  0.4719240826659925  0.2642316208314699  0.8184646685684320
  0.0349387898727184  0.8790672047323460  0.5157175759889107
  0.3124115287074256  0.1152361619225059  0.8632913899036139
  0.0406234177879226  0.3379174039073613  0.5465812311729218
  0.8075036322168614  0.8773586652674700  0.8793250834273543
  0.0177628220362887  0.4392293919125586  0.7291260881868604
  0.8165354200991338  0.8534675673119188  0.5428010214984660
  0.4200881558302697  0.5868193579296689  0.9046437507618281
  0.3790248470448398  0.7761318174553388  0.5385069911312990
  0.3987226973814464  0.6933031471113849  0.8506694866362157
  0.8786189337945765  0.3559397503658152  0.2945021997099771
  0.1744501326738965  0.5885587355747106  0.7849401402639472
  0.9067285309223960  0.0797345729340039  0.3631850094725030
  0.7056939874926148  0.3617412016315607  0.6214797592035870
  0.2477238089097728  0.6066157936079403  0.2826164648835855
  0.9042016623577631  0.5195343594470895  0.1255915148140000
  0.2072991819269637  0.9669811952693105  0.3467065087196348
  0.7844543271938019  0.9909322563529614  0.9476528071878281
  0.5580474103235095  0.0500533273210167  0.2500654435504280
  0.7286195673532222  0.6855972519995182  0.1143511936755734
  0.8679306738095914  0.0252194185808717  0.7881423947695504
  0.5406502446528092  0.7992057036365010  0.7962492607119281
  0.1850608689004094  0.2907341130157675  0.0050090121078172
  0.7672308311295174  0.4413066487489800  0.4148334118672428
  0.9873100364855860  0.1673864948058290  0.8809763413450145
  0.0393520877396699  0.8716340114987071  0.7896607654567385
  0.1882415217822251  0.9957275188803565  0.8527162032459031
  0.5953725581125112  0.7190414073658415  0.0541603593212283
  0.4641456731377217  0.9198287239357928  0.6886027082635812
  0.0608532732876097  0.7589473532905874  0.5198633372797017
  0.8471674164901134  0.4327546403798639  0.2817678004000786
  0.9512272055294395  0.2803248864194310  0.0872649548525972
  0.5543353202523421  0.5958410526394475  0.9193779948822128
  0.1506186440267451  0.8757205173007980  0.7545379404570519
  0.0481097305317805  0.5678006551961057  0.6188968009054643
  0.4328940825858301  0.1317246720484653  0.4216951676633444
  0.3016631007513567  0.8118647765944855  0.3217313816917403
  0.1277069003786153  0.2845367002615791  0.1010750498498005
  0.4654533907488027  0.9782239465904132  0.3660188073158134
  0.7433708693075634  0.2567486507526722  0.5314696662756555
  0.9398596117205166  0.0708796017912680  0.1458926649832306
  0.2477718911447895  0.5897100276342268  0.4688734492128702
  0.1435920454946375  0.7713662757827409  0.5230797818174825
  0.8830267078842383  0.1721735263696774  0.5863374182541339
  0.8053064491242403  0.7441618611799755  0.6558766951556554
  0.5913237434195114  0.6007282710446552  0.2145111819818545
  0.9095547681973810  0.8832915884848878  0.1160433643238035
  0.0892229185838611  0.2696762169966637  0.8502221840470985
  0.7128415923621113  0.5675783819361681  0.3111117627285491
  0.1393037879752068  0.6837647639071164  0.5137038204775888
  0.3609090176972365  0.4011654685900241  0.1299382177612385
  0.5030577209031685  0.0441174525024176  0.3544493500570141
  0.0206702446380879  0.0402079636273249  0.5841511477059435
  0.3298688995933888  0.7740710225460105  0.9434438425253692
  0.0165827646679412  0.1428221617606418  0.1809599868452459
  0.3293450974607208  0.7474210992793631  0.5908058258671165
  0.8300316677114209  0.7285590828066173  0.9736149794460960
  0.8211491544983559  0.2977791846606314  0.7448502080952182
  0.8102129972583200  0.4056201331009764  0.9953249837943300
  0.4736306481893845  0.1283212896655199  0.7348637029298958
  0.1384222834369160  0.9038625168642991  0.3741218371077599
  0.6629627726415366  0.0477514880855631  0.8533131529460171
  0.4953589021853011  0.6901583976180712  0.7319928471285361
  0.5019735800982883  0.7201148590913649  0.6707117965126206
  0.8571163050347024  0.3344313487582051  0.2278370188533833
  0.3550803409366829  0.2771688705619867  0.6804268661017993
  0.7949640385849294  0.5098139639403219  0.9945474743146955
  0.8349584766788460  0.2738488313404732  0.1345470917951083
  0.9817443408725560  0.5296809773376920  0.9829996186796837
  0.8480340885341398  0.1409060977306899  0.0150914355824277
  0.5207398790311482  0.5125522677088199  0.8379791285679183
  0.6845427948052563  0.9049907175328701  0.3122718444142961
  0.6612251082287264  0.8988490034482923  0.3953823042161400
  0.8944738552593856  0.8396609267123126  0.2327132874699815
  0.0518326865921547  0.0626431866279560  0.7740283407169406
  0.1714596299476793  0.8032464735868490  0.0110707949469184
  0.0863584408481456  0.2850314519346709  0.7444006708553643
  0.4347657143103018  0.0100992421311052  0.9798720759970421
  0.8232890560437610  0.0875990816929484  0.7663310862545888
  0.2044121062856739  0.4680286767460629  0.4491755988762636
  0.1331526511133563  0.3154752907336256  0.4231753258229360
  0.9187098343119579  0.5176057813730125  0.9709192457741309
  0.5092237554365966  0.1472152523327550  0.2127671115702659
  0.5211594347069520  0.3741054869132034  0.9410433062157142
  0.0918372271696099  0.1615391028453561  0.1807619967899797
  0.5735405045898778  0.2853231483441602  0.7125108640530887
  0.8565510873750486  0.3430181431904548  0.6043723904892498
  0.0948938010692737  0.0708759006509854  0.7234272073899265
  0.9007582890376764  0.9610847713472578  0.1275116663925910
  0.4813222415365369  0.9677337511490525  0.5064625837422270
  0.0454767067461123  0.7154160589874348  0.0759369516058917
  0.9535299386251878  0.4030071559946248  0.4327540444730008
  0.3475930319110383  0.0189985059136503  0.5224224965474792
  0.9877873578829320  0.1662168227440040  0.6982964741824039
  0.6419210778402733  0.4820662684993007  0.8245768107749281
  0.7715000568735076  0.7246443471578157  0.2218090671133900
  0.7850120960176670  0.7606309391555709  0.9337280280526118
  0.8812567900124626  0.6596407408564495  0.2624753157070982
  0.2635605179710783  0.5686546269751122  0.3441823217358856
  0.3948223379857174  0.9356794740525602  0.0973782485140896
  0.0596548068199386  0.5907895874050969  0.7494576854723778
  0.9377626154692550  0.4640062681759345  0.8883719924462778
  0.8153158967037922  0.0179278812540849  0.4088596317855235
  0.2296868627331728  0.7465223972414449  0.5174712553986668
  0.6030937605819241  0.8749491158665104  0.5086660611010895
  0.6278952180034030  0.2530286649155687  0.8750578688690268
  0.2709788693994082  0.8980161491187472  0.3912841037418605
  0.7096731555709892  0.4062765617548640  0.2751990259376398
  0.7527999780908103  0.5201157410804050  0.5911787145867036
  0.5548630330237994  0.2219883978350053  0.6889250193881624
  0.4512635075478630  0.4767853418784762  0.2425469425249178
  0.5208202147251303  0.5667365145153184  0.1407985086087655
  0.9103246798645107  0.6017510334426358  0.2632012978651637
  0.1903207711822200  0.2883256436959973  0.7390007863269928
  0.7992662626714639  0.0190927930442887  0.5116803069913834
  0.7194941476050846  0.7990588870831039  0.3194818332835239
  0.8321529471673542  0.1368248619799194  0.8091520595769218
  0.0059451654954247  0.4135902384182718  0.4712867230317242
  0.7393597457236548  0.9465643088140115  0.2957773845307505
  0.8673239661345941  0.7898321631682387  0.2855304494441623
  0.0256628501031399  0.9762045672080707  0.9083184104331565
  0.7396757253378156  0.4111137612277499  0.9886780896665561
  0.7104669035126433  0.7028727409376083  0.0593451726827655
  0.6571353994272461  0.7494237187811807  0.0727982030809104
  0.4890448592847496  0.1239427243231948  0.3796997115673048
  0.6397511574866394  0.3836718032516799  0.7221988943683540
  0.0703179921614493  0.0724802309031762  0.2665555458650372
  0.4594368171054767  0.1863651972912064  0.2285011384302229
  0.3604351972527113  0.0396297617157867  0.3187810468125141
  0.1346833775569091  0.9252276401155118  0.1995646460414890
  0.4333968045132159  0.9883269515474723  0.4224810198390624
  0.2549497569096781  0.3426959065542315  0.1932736386656143
  0.4680825690729949  0.3365829449757985  0.7353686595080182
  0.8882879695785804  0.1758142752160775  0.1067244517550072
  0.8066266062910886  0.6932887708583124  0.5608830703757671
  0.0118445881558226  0.8214432345352976  0.0626824140594287
  0.4492442771422364  0.0771799388339680  0.3874866872567326
  0.6714102738445359  0.2673518450329490  0.8238255211972701
  0.5462037986635035  0.7218893207529717  0.1105092145303389
  0.6443079827804350  0.1247622359256334  0.5442187956583263
  0.6335053831660922  0.0632078083807467  0.6521288879168808
  0.3647976451765982  0.8179140506269241  0.8941566093431407
  0.2596666018183065  0.6566608340991419  0.6380307743728592
  0.2726422875414936  0.6048033801279895  0.1109542079803616
  0.4648485825269314  0.6268949883336835  0.2009256973168176
  0.7040136791153782  0.7911027855770913  0.3766265453859214
  0.9266149112928171  0.0636449526200569  0.7659823317629574
  0.6910286451032761  0.1626723501001740  0.4716181962243256
  0.5757913565443572  0.8025905291072878  0.3065476748198594
  0.8568506050621161  0.7025940799907495  0.7407581901546435
  0.8751478508053556  0.5502198012348537  0.1704824358026367
  0.0821365617666378  0.4169032943562334  0.5953227254010842
  0.7339086876934143  0.0571276868570976  0.9490297244833870
  0.1931844016128645  0.3150329788644869  0.8085717207806168
  0.7655440422651446  0.6729483094582064  0.3442378900508701
  0.9588469176112300  0.6532644629328828  0.4072001056601378
  0.5486664955078162  0.1862954761882233  0.8477597479120385
  0.2857962239051066  0.5963981138239126  0.5812084851275797
  0.8676621432794054  0.4532248604994108  0.5002310366980364
  0.8296081269084700  0.7189507550342920  0.0408881261342445
  0.1335627747008427  0.0263608176553560  0.2620881252227966
  0.6205380773831675  0.0541805875659172  0.2393711313863648
  0.6749756590948429  0.5099526612627092  0.9412473298279691
  0.6935037442591773  0.2958808861040358  0.1099682335201329
  0.6121581743649515  0.7438268870345535  0.6452658285745162
  0.6890399549243835  0.0705539619681937  0.5311779326219873
  0.5515715787096254  0.7417103748335251  0.6186472276623607
  0.4366570482054349  0.0397078720700770  0.3307681975381701
  0.8020286634237388  0.9288852419528841  0.0989682676905212
  0.8214106086345426  0.0005273199253862  0.8801427421318901
  0.9140161739047220  0.4803824964134224  0.1820382803140319
  0.4710195705361591  0.7207385501119608  0.4971387642528547
  0.3786558317198629  0.2729706880893321  0.5451731032554079
  0.4399904767092788  0.8756051348344296  0.1123861814834443
  0.8115922981813314  0.9554024269657752  0.2619017739734504
  0.9368154959987095  0.5568468069710714  0.6580510103224049
  0.7619948209884994  0.8563574921328978  0.5679292221018203
  0.1534764643654744  0.3747172597965372  0.7743052884315681
  0.2293009385509553  0.5024931363945567  0.8579588428507731
  0.8899533057958812  0.1154698225901557  0.7715524966774610
  0.3694187911674301  0.8544220611298950  0.6264288401900207
  0.3616523370206004  0.8409980672247593  0.3519629659148931
  0.0458174956389721  0.4507527781220042  0.3883517950452433
  0.8386520563930782  0.1426801403952837  0.7295897782147129
  0.8848016164759923  0.3017713137132785  0.1090315889749155
  0.1696414808641711  0.9538534415634952  0.9532556724914443
  0.8155840547921889  0.2596367319867935  0.5295323358195266
  0.3840908747531575  0.7256357872013045  0.0034017110504153
  0.2377401343020502  0.4052100002024453  0.7373812604497929
  0.7923739294044495  0.5076736154647693  0.3847685325890432
  0.4018396627172680  0.7093708818146799  0.5319590175428004
  0.7805336324763694  0.2821227374254147  0.4053158854031830
  0.2660385780392053  0.7314448362795544  0.1124796178173700
  0.4612906461124132  0.8537248501000639  0.7334988527483149
  0.7487994318537218  0.7288635167253052  0.8750193583879987
  0.7230562553676446  0.3983054136005581  0.4351459401331409
  0.0384034971240563  0.5914127197630086  0.4295138381490536
  0.0618168034745023  0.5431815452747366  0.5589902467134763
  0.2529312713876303  0.5023030793494057  0.4481183111244019
  0.6453077655200071  0.3735703253059575  0.3064112680144771
  0.3886928772360122  0.6051396205754958  0.4777548823447458
  0.3715108711870713  0.6243534083183675  0.9301829036356501
  0.5431619920807910  0.8827373206138435  0.4889384899096856
  0.0173342125333597  0.0332887074744561  0.8765288649605981
  0.7150372856875745  0.6222580135668003  0.2178361933012570
  0.4104070156881090  0.2152180206319427  0.7342031401721454
  0.2051351647756923  0.9295008137424702  0.4737879303570649
  0.6049198054313684  0.9949398789840492  0.8508575697398827
  0.0932247497451231  0.5191326437329997  0.9566565874475347
  0.6646277364170482  0.8547472773004339  0.1706769249050821
  0.9807687668492975  0.3742497708624324  0.6248307297157135
  0.6236851360155757  0.1848672177919902  0.2423041291002925
  0.1541321015805595  0.8530674158533447  0.1669594530500574
  0.1729193410530306  0.9724703168504317  0.5143265803937110
  0.9110861743471993  0.0216897085984707  0.9379156145563566
  0.3049738475502237  0.5324592068660180  0.4887648575474488
  0.2669309485667031  0.8144863943503520  0.9665564626526335
  0.9274794231744647  0.5738397988118716  0.3307436163800671
  0.2405087175880297  0.0478827226055946  0.7402661945507933
  0.6597722872964797  0.5816538510193918  0.4965423732154249
  0.4565515850510448  0.7452842517566313  0.7044556185427274
  0.1735916729713273  0.3240562378297812  0.8828667068914948
  0.3528672918238318  0.1805585132183193  0.2996857141807736
  0.1800282678426939  0.5915594245838690  0.5427802764907942
  0.1487828784465965  0.1825865518722662  0.5876102753137232
  0.7746319198809067  0.9578609152178671  0.5102999259871829
  0.2052829869219209  0.4454508830284343  0.8488912260683564
  0.1570303039203088  0.9033093663186231  0.6965619382806250
  0.6526649806286005  0.7638341620098267  0.5917249004709171
  0.6052021535519426  0.2499166902997258  0.8181664171834485
  0.6017379979800054  0.1856145408645906  0.5291091302141862
  0.0249848431030766  0.3053447995725058  0.8400025303215868
  0.0406518956182476  0.8204815153466063  0.2139551077681314
  0.9798787799492520  0.3597579118586151  0.5575196230636944
  0.6747850433870076  0.5758979866286738  0.8326943285524837
  0.1092785737475825  0.7083086778311977  0.7106588600109205
  0.0094489995025641  0.5368521205282812  0.8945695727992716
  0.2440658718747900  0.2025559122733745  0.0725075774415658
  0.7067102321592800  0.7093460771915032  0.5776064516051919
  0.2550711729330354  0.7647429199760597  0.6824099696538503
  0.4988719966083707  0.3606276006811358  0.0034957825721741
  0.5432971884503577  0.5254212861035115  0.3976906984270878
  0.5409640268604121  0.2455579109274647  0.2994408895704854
  0.9941303395105231  0.8904180386607442  0.1308696015661800
  0.2352403236334198  0.4450269697836939  0.1630763190870899
  0.8339970554435862  0.8614606895318015  0.7323271508787372
  0.7138840569307532  0.9350933996526980  0.5197269490964088
  0.9622141638295552  0.4870619419535933  0.5842470142225452
  0.6026186365911358  0.6803043327530736  0.7861107992965143
  0.4443603734689546  0.7542040836369981  0.5565766749411908
  0.0707938377582047  0.5837203815322773  0.2774239186993951
  0.1248366404841187  0.9301974288654383  0.4299986456263674
  0.6866654895399892  0.7907120196516112  0.1533620688698480
  0.2124171838869977  0.3884251288335840  0.8826492008864621
  0.0056180033165361  0.8204855377179321  0.3531472935611326
  0.2010808379442088  0.0396795152833335  0.0221044644307132
  0.2526750314364957  0.2520085840984722  0.3004206721859646
  0.0686847650819204  0.2127173533471967  0.0174929414046159
  0.8496413983206462  0.8301705884988819  0.1703284311227033
  0.0307058050426018  0.6295857312856701  0.1322250382815329
  0.9625559909039030  0.9852696513863193  0.1084068178731303
  0.4286895499806656  0.8347428328827604  0.3736089475195223
  0.6378948331197136  0.3837537776895356  0.5435664638641226
  0.4055040057510291  0.0458585061355118  0.2016359065651004
  0.3876383455533924  0.2150637924869357  0.6737471226081970
  0.6844070025288264  0.4841148473179352  0.7753742708556181
  0.5363812423738925  0.5286867067366036  0.7763163251178271
  0.4053698894626518  0.6171957847647349  0.1450254342765201
  0.3093151780246495  0.7443939669031544  0.5259868017165967
  0.3129889810798624  0.3252853329791113  0.8442914209920594
  0.7801600733615613  0.2061804599019340  0.9815320490525752
  0.7142225320289961  0.4740325501243690  0.9770102332869869
  0.7942020226837355  0.4102892123501092  0.6427058871789808
  0.9444364743825840  0.0757044548188339  0.0349496488786418
  0.1830876536778680  0.7109826609026595  0.4747677874609020
  0.8443191306611938  0.9738108093389835  0.7404260465668210
  0.0369983580519026  0.4795671840921598  0.4457169926869890
  0.0207924241671136  0.0904883640518406  0.2215581344577550
  0.5045894994947764  0.7272419051740844  0.9211790488875857
  0.0723361983521551  0.9627051165963945  0.0689349062987529
  0.0457586079365393  0.6923278710415578  0.2443178659895250
  0.9774211855574547  0.4949172979555623  0.1852858796074994
  0.2073159418074885  0.1443755512870819  0.9831806253893516
  0.9140140137423433  0.6994012110182402  0.0952212798236834
  0.4879383347283240  0.5664888034811620  0.9429357574362154
  0.6143399011233107  0.7079468133885781  0.5924701937357649
  0.6693604287238173  0.8824151584659781  0.2397534242611353
  0.2236926728413922  0.8422764364228323  0.0757385146204782
  0.2715476438781512  0.5643048420720661  0.0411984120445492
  0.3758188681213422  0.3895999219700139  0.7899275827546931
  0.2599288567043406  0.5489616928701261  0.1409173920279547
  0.6648874028326456  0.8231265969352074  0.5621196888492440
  0.8335639056424677  0.8857066500243310  0.4042308879821871
  0.2043487911814691  0.2573652281350897  0.6385308892077188
  0.3069901170436244  0.7101593410829239  0.0666583279276681
  0.2953459479618634  0.5931802540073319  0.5123134207892521
  0.6795656317078987  0.4210803035131584  0.5960692477238373
  0.3817413257244767  0.8440190170672632  0.8165958301573809
  0.0215651012145301  0.8573853569833937  0.8572803283987717
  0.3006352172787713  0.8969473156714128  0.7530542813446397
  0.3329196075348689  0.4062956680186622  0.4965638631066756
  0.1325592582323314  0.1038859518341051  0.1980055674667151
  0.0945072716691484  0.1722962086951189  0.4981629419296353
  0.9607657377104237  0.1532047867021676  0.7743508008182376
  0.8177871969534409  0.0931053635295182  0.2103149548285944
  0.7529622137342902  0.5758379862563950  0.1857430519040368
  0.4227283211872505  0.5466560174842413  0.9661102773888847
  0.7505781393517282  0.3987489545276020  0.5918114186986039
  0.8371140207794077  0.6014229867144972  0.5938598485405227
  0.7865767239751035  0.9479987311218597  0.8988538451915551
  0.1179028730680289  0.7291809116182658  0.5609890300648627
  0.7188271788485560  0.0971760591776475  0.7478984206767091
  0.9282869514623282  0.9128622747526799  0.8948114364973336
  0.9482422335637954  0.0528343408517188  0.6896223049063516
  0.5913904849881790  0.4559760135096445  0.2578538345186558
  0.7184354445744230  0.8035858425453865  0.5833924465366757
  0.5510438286939892  0.9898866632732882  0.8151507560143546
  0.7440994399360654  0.0474147681192530  0.7314875181086242
  0.9355316891505105  0.3956708348704190  0.0277874093745813
  0.8538721135836083  0.9331612461374423  0.8936532915088917
  0.4260310604876445  0.2988840704731834  0.2075583455461454
  0.7211600797292487  0.9827913492310290  0.6556103992762060
  0.3286114243797033  0.2365108529318252  0.5642766482286055
  0.6225453151631742  0.1309377118584238  0.3686861609234232
  0.4823324526462134  0.9105184240833774  0.7883366604069222
  0.0532780679996573  0.3505978177798805  0.6127923309998305
  0.8352588137378503  0.6749589737026760  0.1704527335699288
  0.1985714182774109  0.8450265465960557  0.9581121644490234
  0.7293765180460797  0.3497397863853692  0.0226978573117381
  0.5876351544252578  0.2165168741284350  0.1917378563247699
  0.8946869664513029  0.2889105076600441  0.2773780524930256
  0.7410199422442616  0.8820949330154177  0.6294745201673434
  0.0162057092558348  0.2249733325564704  0.0919080562869166
  0.6758108225634827  0.0528340987645556  0.3312750535694187
  0.0196374845058220  0.8870043861954550  0.4396708099214026
  0.7776154020793932  0.2238446290914837  0.4826650431641830
  0.8606111498100895  0.2340916945326981  0.2763621616460602
  0.0569684773031568  0.1004614054464747  0.9612515507805691
  0.2559200795037055  0.0919807755463047  0.3479299427537655
  0.4912726570924625  0.3109757656091352  0.0425464045796357
  0.4059869882635745  0.1083717804117888  0.6699676578173199
  0.5652814589323351  0.7268786254526649  0.3156384202374002
  0.9652612590856776  0.3826961919842424  0.2072895729287962
  0.4967808849373821  0.0326632008001368  0.6329121578838725
  0.3238367206390854  0.0030609852980777  0.8456716157753654
  0.3648678504539076  0.5149257275003828  0.0061612440009114
  0.3369982175710239  0.1400936718332954  0.6972687583086238
  0.3408655041358508  0.4642641096267636  0.7729814813351833
  0.4352588272395201  0.5821388447176004  0.0969724824955397
  0.7847431930456914  0.0747461853722172  0.1450996246809765
  0.2228802841881768  0.5857983832522776  0.9492873052249636
  0.8534600439877721  0.9154724957897896  0.7684119185321888
  0.9372699494701840  0.2301861395740064  0.8773028734874119
  0.5405507654508498  0.2394858993237807  0.8217056570201368
  0.0309748849244273  0.7052229231173314  0.3065207100343040
  0.7514230607952513  0.6613095035382134  0.6626491766548283
  0.4693944580321175  0.7428932499567860  0.1861578775691148
  0.8653215700978500  0.7720894087611172  0.7157300274159325
  0.5008316735718660  0.5733938370131965  0.5832144566055024
  0.8488645592362326  0.0876611584282033  0.8636547441133913
  0.4428914630514041  0.0126025106889743  0.7565944895299805
  0.4232918256146728  0.7951796823810150  0.6217218091225439
  0.9908362408596441  0.2734973207796000  0.8819429022769684
  0.0844994535224254  0.3643016644456013  0.3142575550588733
  0.7398188174733183  0.3940901546718578  0.9188871166037312
  0.4965775689645269  0.5132378957989996  0.2970768525561953
  0.5076253097646790  0.3071346430800165  0.8498659062313205
  0.0315203701525244  0.2336727347637573  0.8192972994329034
  0.4768931637765190  0.7409345785861220  0.0407012581219155
  0.1664274944422006  0.0374589917293205  0.1990591494227718
  0.4167191591355343  0.1598182728014286  0.3022766427331903
  0.3931062751966946  0.7222771816324943  0.1299877618302787
  0.0505019660450535  0.4532959968811937  0.5019088497152836
  0.0797192748875026  0.4981483794556681  0.8881074097990598
  0.0074159555801312  0.3227062853197777  0.9441730090607343
  0.6093049350602323  0.1410662011449253  0.1180648293801668
  0.7477618090283426  0.1863775996027948  0.0369055083137953
  0.7570697997416636  0.3631996091906490  0.2206097300630361
  0.9952389497409694  0.6768093390009707  0.7333236561305623
  0.5234629499304582  0.1540715704787307  0.4541692983890721
  0.1223539528267579  0.7224794920125180  0.0808905856932013
  0.8692430096988615  0.5472795595281214  0.2396316357959885
  0.7656909333068997  0.6056488229900178  0.3319211655857388
  0.2078998746670616  0.6190508055853976  0.8839485758014595
  0.9309607110687164  0.4422634144618718  0.2288550512406381
  0.2373556626428115  0.4583092495879478  0.2262033401881847
  0.1911849851104361  0.0341548999996786  0.4165003495842384
  0.9729356456221578  0.1533627206429795  0.0471918756748404
  0.4488503082173669  0.5687137334870963  0.1592386044003445
  0.4817172160542377  0.1077347839082652  0.9113650587591320
  0.9976324841449831  0.7664602490671665  0.1801635387006184
  0.1901828373655010  0.2548225494164949  0.2767167448516963
  0.1994229691847860  0.5455654334364037  0.5978347707824976
  0.5393188024997408  0.1664887424944739  0.3806467565494921
  0.0279261928241325  0.6874292931617723  0.9216961470680440
  0.1757189487400704  0.2270424701618820  0.6990761438244172
  0.3316452979523007  0.8111195205738165  0.4328381045848773
  0.4589562927087416  0.0867950636689505  0.6201731589178744
  0.6760282540801578  0.7244663944708213  0.2781445749398716
  0.2756112258881023  0.3859571433158613  0.8593784419754017
  0.2519929974095841  0.1353125341607649  0.4150207500873310
  0.7957552539224152  0.0162385818992752  0.7074764194085155
  0.9501834746587134  0.5503950723409641  0.1589450644039976
  0.0779055019950204  0.4914892692372007  0.3507852677325056
  0.1326033925843800  0.2706821077815826  0.8999308723582572
  0.6744697341680679  0.5890728542208532  0.6060510228784338
  0.2251320672471296  0.4591083606913698  0.9033670947959863
  0.2726661610601967  0.3288009600063492  0.5917047886142873
  0.0538429178730440  0.8198370420741595  0.7048620270233641
  0.3970770260906278  0.5700249148068190  0.6499332690797754
  0.1008187074771738  0.5865766376154911  0.9483728861435311
  0.9745223221335292  0.4329658893628341  0.3827696375051200
  0.6129122945002091  0.8092415200947453  0.8919854971757806
  0.6067455523273811  0.1977620277806004  0.9658584322508653
  0.0769909851476181  0.3804675375604138  0.3782935203470958
  0.7071596204224181  0.1418627982662686  0.5560371930091872
  0.1211471390074809  0.8464559781839256  0.8555408762653721
  0.7611716501454796  0.4671500865647746  0.5432359217759948
  0.1451833309731531  0.3033024963980233  0.2654091141708732
  0.5265789096734481  0.0319962087659962  0.6920259697270380
  0.1826473529943923  0.8089306801772790  0.8934963445388218
  0.0536530051490863  0.1908702159320910  0.1383240239818171
  0.2914762777695842  0.2882377660557790  0.6974928192891507
  0.7446498344124995  0.0145249399818839  0.9853633577405422
  0.0821784335348156  0.8694853948154289  0.9081729346702015
  0.0581777538937665  0.6906450300601533  0.3659729597315333
  0.8973741339621109  0.2683463390991110  0.7322037981580748
  0.4562351585067366  0.7982228297541695  0.1899719049580517
  0.2745111259525445  0.9000727726800336  0.4573720370690016
  0.1205063156645708  0.6932173365230979  0.6499227662213133
  0.6754465744934107  0.8062121530678000  0.9177339623352679
  0.3427807487938659  0.7174226263722205  0.1708734810594590
  0.6505077977841652  0.5334364196331501  0.2696488239030503
  0.2228338593191231  0.7993434326102359  0.4680889750717732
  0.5651722589996713  0.1144287453671794  0.4105564020898533
  0.5296559492494417  0.1966328587633769  0.1058233102233682
  0.3062925335720037  0.0919260172922124  0.9340071359296178
  0.5659728598702510  0.4229279499863901  0.7054952525537695
  0.8782228047073282  0.6295730682648292  0.0761953144752261
  0.8935179461626093  0.2457327351034277  0.6754705597446506
  0.6617308096904277  0.9812076522539731  0.5495067986731502
  0.7138112818050967  0.9860129707096832  0.1391549695471914
  0.3692216949724586  0.1590481562913146  0.6453864997142948
  0.4434724349987512  0.4986047323802688  0.3129919606141779
  0.1007570683610215  0.4866708780746815  0.7715751411382588
  0.5917975266198578  0.1850717814448400  0.7306449802925535
  0.8857681029195885  0.2739439343514067  0.0333339940682908
  0.7825668666932790  0.1408690677057748  0.7724303419751704
  0.3577896687339626  0.9711555228453514  0.4069681116694958
  0.4815613864095362  0.5376442669702407  0.0022141238110928
  0.0432265996752119  0.2194125345529714  0.8870551127671766
  0.7796771653373737  0.1178929568053851  0.7076933295066853
  0.5292390006661638  0.8216016712725254  0.6206595306507038
  0.0650046025831528  0.2777957645819718  0.5758871485726010
  0.7609049818242407  0.0261912844805641  0.1148409639397314
  0.8974702239437863  0.8159895694125309  0.1251723502020750
  0.1925427030317493  0.0533524632470979  0.2655124109011743
  0.9352071433751927  0.4155746827607648  0.0889823211878830
  0.4248711650227922  0.7015451349349713  0.6610260008480918
  0.8743340654954296  0.2819366841295001  0.6197128953544847
  0.2354075872410573  0.0684730645132805  0.8042149712161082
  0.3051757668663685  0.9373128547643274  0.3242875614252022
  0.7789001027878866  0.8297023546811982  0.2072985673980111
  0.2259320908329357  0.9764645315770997  0.4129601041547187
  0.4688688309346812  0.0735775468363579  0.6956606291501809
  0.4909093028826851  0.6484136320905033  0.5832707325598867
  0.1193137011885163  0.8376839312056084  0.0178097299157881
  0.8681274720511315  0.1582579837908391  0.9478864026781647
  0.0406187808876440  0.1022272171475219  0.8977619203532755
  0.7683839853979808  0.8594484610318164  0.3850658156253740
  0.6621642574449778  0.9006849924935149  0.0073081947858195
  0.6253043639393441  0.6962089379525940  0.3159193530791746
  0.9193806019747389  0.9126547501876039  0.2938479498405577
  0.6350732886112758  0.3270523458049294  0.5155293439085278
  0.2908304078404272  0.5685479596466166  0.9152134252810551
  0.0700013933628137  0.8517032360669848  0.0586376915705904
  0.5801264672408993  0.8737912688315000  0.7521709239084464
  0.2038812836252749  0.1733165502214681  0.4386203750984667
  0.5092136250199238  0.8357205670683977  0.6808869806884733
  0.4976415979127774  0.3183043213220311  0.7840957402389294
  0.9825353327449681  0.2607198485767527  0.6331197569373063
  0.7372104586451558  0.9062567216635338  0.0139265459059551
  0.7669468070208906  0.6587324298203638  0.1895210641719349
  0.2445047759015553  0.2714893008718354  0.9858958005227253
  0.6016627647385386  0.0165991823675720  0.4053903737610710
  0.0473299724348423  0.9350744796097943  0.7111019912519959
  0.2286162415652492  0.5528273034469005  0.2472048485203674
  0.4608861743290816  0.5675697412866531  0.2945245275952540
  0.5402801120024638  0.5271084846538525  0.5809675525339911
  0.3220600615709208  0.8415521861190878  0.7840162611610630
  0.1982708018870646  0.8585409693676674  0.4546153719202841
  0.6766553715652163  0.7764874248758957  0.2389745553689694
  0.4755627272162823  0.9344020732031397  0.9076886858555718
  0.6474578719704429  0.6338754413280795  0.2177112949471684
  0.5416939382793562  0.5496308217890337  0.1951219927782460
  0.2538535117466411  0.6642314583530843  0.0852587599096009
  0.9459546960930564  0.9276639308369532  0.7349660499336338
  0.9908868184546500  0.2396673902077747  0.9343034506172960
  0.3157773782690401  0.8011857531658787  0.6450591978697350
  0.6775668111123333  0.0905344444122391  0.8087265820766658
  0.6449850819536365  0.6176996985058469  0.1553998748097230
  0.1026211767613465  0.2390369952349689  0.4924171707114109
  0.2001196960402911  0.2943628878586372  0.5028267697495369
  0.9859311824927220  0.4342080572189737  0.1778339339297621
  0.7838754781646546  0.5785641856667363  0.9576028130577854
  0.9577415848685308  0.6989974096301296  0.6670193341237569
  0.1331172318991806  0.3323078346515352  0.7253718004609494
  0.2020731159817237  0.8010786389072357  0.5401478951672127
  0.7810146038032519  0.0954958625329479  0.3242741162766034
  0.8284152703452522  0.1440027370558527  0.8833093912024229
  0.3731641402903944  0.2676430386460225  0.6199677572709984
  0.7570444736999816  0.3415766444886071  0.2875295307489804
  0.7104155810340584  0.0227581858983438  0.5868146651631220
  0.9894149285027838  0.9099356271712620  0.4914283377604484
  0.0240352608611986  0.0324491817813576  0.2416677750588557
  0.0030236899083876  0.0252034990221343  0.1499821410085925
  0.1796494945428336  0.3417219712748465  0.2000101422879273
  0.0383989137622850  0.6330339463490193  0.2745923741289108
  0.5670017303135785  0.1017706221357582  0.2107706746021529
  0.4418387190893737  0.1945943917393256  0.0549321052641712
  0.1159058122599186  0.1316135074853622  0.8978948820721055
  0.2864024660278672  0.2836464340301917  0.3494917773977812
  0.0127102487876145  0.7047196797714403  0.6289659881480423
  0.9171026735021673  0.8460188804998392  0.5693171636743466
  0.2727458449810473  0.3321279452672358  0.9582881804387124
  0.1971711116374752  0.5736057936355666  0.3103480335951239
  0.8635993247751227  0.7693494290045666  0.9418359368319997
  0.2292450536604499  0.6917618340099673  0.5812369024361140
  0.8779117413247880  0.5032902363123157  0.4416656453898210
  0.3688295882565364  0.6860188561051638  0.6217470234316890
  0.1917112826030934  0.9933333140811218  0.7415015094780072
  0.6694263509205481  0.7088718098168306  0.9736089458891071
  0.4538454974973332  0.1151391687694911  0.1995309400595447
  0.0952280861973854  0.3267001276046562  0.0662857464725572
  0.5268094511411113  0.9806607587303597  0.3356029016510668
  0.7811457778014926  0.6486813432487526  0.1275705121953224
  0.7141916193604726  0.9306076362523275  0.1898051813910091
  0.1147169035796690  0.7491513148563844  0.9061724008424046
  0.8657967313328173  0.7553407014900104  0.0932682975013533
  0.1530391897715379  0.9772281862221670  0.1640082987988945
  0.3112185045454026  0.0665297237777745  0.0721682783158638
  0.8864345502576121  0.0510834035446374  0.6710895269754704
  0.1603750918987305  0.9940195008339858  0.4502541530543022
  0.6559835859492247  0.0543030231486732  0.5811339595255128
  0.0905067068099705  0.6259885395065450  0.0164491407010544
  0.3555849623171949  0.9936184555151171  0.6129148643485562
  0.5155796980384600  0.0482483626768547  0.8160376144033686
  0.7851398435514448  0.9691120092350535  0.3219746606686023
  0.4317401834337878  0.6708978684306247  0.7272931531643113
  0.9448794566469437  0.5252008005641631  0.9125418258370459
  0.4738763107936990  0.9566971836025836  0.7495447623627488
  0.6143829181499910  0.7421213271039929  0.1150998947827946
  0.4167976326205693  0.5646485313553611  0.0317149919373573
  0.5515642416063734  0.7788729890256155  0.6744974438372022
  0.4109393467377553  0.5125300329339904  0.1310149190413746
  0.9493381807734009  0.7094461150561467  0.3760914210228543
  0.1557629031329347  0.6586734350409166  0.6991212837692973
  0.9891445357636506  0.3506747642535789  0.4466791960500067
  0.9995770027276483  0.3086759189372551  0.5911555859515794
  0.4798169063119792  0.5850523078596719  0.3655867375958843
  0.1957676019981504  0.2739839532216820  0.9344984611382467
  0.2494014170840358  0.5428967762825310  0.5128079862414493
  0.8382902664388163  0.5915051225709687  0.7059541008383594
  0.8176435089110751  0.4709959204825296  0.4466188232359385
  0.5609460502823613  0.6357157506980593  0.5109239149612103
  0.7163692120149691  0.7935948680785908  0.8705732972823826
  0.9485883064745431  0.1470460147836335  0.1546066017313505
  0.1706549880836841  0.7650843746086181  0.7990433935046634
  0.6080890615944272  0.8110764663029572  0.1461670149163767
  0.1865708782694246  0.6415507962132123  0.7591781927116821
  0.1784387980179018  0.7296977118452924  0.5591564302399242
  0.7794147428525344  0.2863862275658476  0.4720672865340321
  0.3473519875849129  0.4631247729486884  0.0330010520583823
  0.6637356638429820  0.7436709084131362  0.4793164935236879
  0.3165745899193360  0.8763897207080634  0.3418395511477726
  0.4088105439576755  0.0113971924562581  0.2707805627686210
  0.9051149641138272  0.9739282029910148  0.7654838556719712
  0.4313811123045889  0.7967762658439854  0.8066737574216316
  0.7056087728111908  0.8533106948302067  0.1184894130201282
  0.1484430160026879  0.5892280507145128  0.1503952906856181
  0.5399674471202291  0.6640545485031003  0.9239900905375613
  0.6951947044715916  0.3295847637522252  0.1789724884800795
  0.5628635295911131  0.4216835474795139  0.5338330328947245
  0.6945468047346821  0.7677126963166946  0.0138745157879704
  0.4267454783281478  0.0617169983859771  0.8767022738577613
  0.1218374412421181  0.3586447950825163  0.8394061765283358
  0.6459156650087308  0.2139974171554118  0.7768156950691081
  0.1151698300398067  0.5716363959413671  0.7976422674927908
  0.2364623796329297  0.3367774713224230  0.8432554369105538
  0.4030475286846001  0.4417192770075004  0.7669026354246631
  0.0210656707414584  0.4508420151747540  0.0288259935653295
  0.3824850174896300  0.6685284682545667  0.9787960171789927
  0.0884267777037099  0.8661095824359467  0.4140711352567965
  0.1834285682698317  0.7224923784984326  0.6940143619524990
  0.1344762812998911  0.2304446514200565  0.2835457630145062
  0.4233890701658955  0.4125691892525227  0.1059549497738456
  0.9070845107847426  0.5405231675142523  0.5592099128808878
  0.2692158230786477  0.7488496370069384  0.6216416596494565
  0.3641590564844248  0.2627026169311933  0.3860813898968184
  0.8185665686420226  0.8982768583713550  0.4772954753974720
  0.9758785316655951  0.8438613252136146  0.4706378177019833
  0.0206979845681176  0.1570337490068611  0.9269938335693931
  0.6244297588852027  0.2973289584034671  0.4608750383195774
  0.9233280380126532  0.7497652479020970  0.3130481993243834
  0.5729776705576765  0.7194379833832371  0.6911985530476186
  0.8665557676996958  0.3297548206732834  0.4192477036882199
  0.9461788315619414  0.9954859531357259  0.1700403473985717
  0.8477136396185058  0.3008049576243085  0.9750736849586158
  0.7326221247759735  0.9239972414199186  0.0925580789420259
  0.9048045711265080  0.5928932503643897  0.3836599223585967
  0.4395153154743115  0.2537291161889682  0.6885971216367396
  0.2196931508192248  0.5852303722792030  0.1765187302387135
  0.3371026130046039  0.3200631031843026  0.9085622853168818
  0.0742957542720688  0.1211836755470250  0.1127338652049311
  0.1319686679757720  0.0157876992134570  0.7580158763751986
  0.9314165798189905  0.6385291014871295  0.6669545292523942
  0.2470803226080683  0.8562341394122354  0.5121977031252732
  0.6301339655997255  0.8195954763295289  0.2727712082669082
  0.9505845199775822  0.1108775873932290  0.0968462712841433
  0.5873779088812917  0.2659407562032090  0.0479402602065406
  0.4504242472195394  0.0235067845840730  0.4925767247740069
  0.8403745996692371  0.5540147596041713  0.1130594072620357
  0.2306992340052280  0.8855401685444514  0.7405765130497546
  0.7532157721045407  0.0987042623280768  0.0838345983730517
  0.9880573036919179  0.8281097935895537  0.1772536509997255
  0.1896113813058740  0.5162265921825380  0.4171384168579066
  0.0911708822530785  0.2044418643846501  0.3165966012290919
  0.2759609673504757  0.8365793433464879  0.0388642704671452
  0.6367308035509985  0.2861492614773165  0.7626268547051787
  0.5488882101050696  0.6827155208979067  0.5778968444684180
  0.5894306962921469  0.8672079877613625  0.4340966971239312
  0.3627499602182583  0.5359317051340388  0.1891383802332855
  0.2171977722078889  0.3474054329816975  0.7631340459340378
  0.3103949426385039  0.9701562615242846  0.7280162861426877
  0.9345911246554593  0.6526812935789781  0.6036358496064537
  0.1374131803415632  0.2955989849136088  0.3487657766176263
  0.6175228631442210  0.3520211785665825  0.7878806426799321
  0.3286009587654200  0.4960263923603350  0.7146465197620943
  0.0250347153864438  0.1075716450934458  0.3730626499027721
  0.1789665107893590  0.2295273272926663  0.1276699448420581
  0.5007451925883580  0.0745643080798667  0.2343867987845608
  0.1147706841740641  0.3082777414201651  0.0083574150993577
  0.9945209564592874  0.9287554087450856  0.5570384282717382
  0.9946765626389155  0.5880753433761967  0.1964494684262567
  0.2399880998326613  0.2488000725708064  0.2280757540404142
  0.4669333626874996  0.3519672489954716  0.1828891049599176
  0.4026274888344700  0.7340315189955715  0.6059237222748033
  0.7373706831029728  0.5361368088274833  0.3597732564603399
  0.4254933662762302  0.4364282572141820  0.4389454050481107
  0.1755082025535159  0.5969256403744752  0.6964892376433264
  0.0815016881813140  0.0774858811419033  0.4643046685376336
  0.3441961020820950  0.2408672486766339  0.7290226983461118
  0.8762951949819037  0.0665886720019981  0.2082108821833334
  0.4722524273475626  0.3821940659637197  0.2971028117489193
  0.1777640638500632  0.6908988118954774  0.9910147894535013
  0.3939097438690530  0.0542236278702094  0.5805096725980539
  0.5596646643057938  0.5035733665606479  0.3036425543738713
  0.0728147348408391  0.0673408135402493  0.8415334895412580
  0.2730005392987557  0.7357142110002605  0.9855299137087796
  0.3663647312498450  0.8616877300466442  0.4135201076293203
  0.5912373369243614  0.9352778328268284  0.5768059624671490
  0.0653416251584169  0.3649196198626398  0.9934411732233436
  0.1641020237752070  0.0407942428701715  0.8012828859845645
  0.8925314968390992  0.6127597795874336  0.5487066074885388
  0.1862686045131152  0.4976744100344271  0.2272168660297872
  0.8200587939155920  0.6722135562959997  0.2397785268377436
  0.4020579136058796  0.6590617428505865  0.0854478206729653
  0.8691135489328522  0.7087877124607751  0.2164920136389899
  0.1370268464733773  0.8332672185130000  0.5410153865831759
  0.0684516816990443  0.6864823971563006  0.0099007178546473
  0.7922030531114543  0.2688729159231105  0.9039717167969629
  0.6885577917837747  0.3228490050134911  0.8026461719106299
  0.4261073738103006  0.6380493219739732  0.2520998695810638
  0.9931238528187410  0.7764940543397477  0.7885299576956414
  0.9069595193202066  0.3333903739567208  0.0564554061495470
  0.9396748061045965  0.1348901293052718  0.2710772126539098
  0.0190481768456750  0.5953382934678828  0.8544456739393457
  0.2178379810218463  0.2986933057886323  0.5794358856749201
  0.5930856165486352  0.9627790090474195  0.0930656984789428
  0.4226355086933221  0.3218664663287700  0.7788918345801610
  0.9941815130123920  0.7960908239747004  0.5174047372950729
  0.3190674917927722  0.6441698813649107  0.0843882517151434
  0.7589366269670514  0.0561771502331341  0.2655355954025669
  0.2595385935752761  0.1322993776627051  0.5279425680413029
  0.5242993424570030  0.2120087269765191  0.1831368904824319
  0.0897607338388569  0.6413004408423509  0.6907337456943977
  0.8426591576056607  0.4664673635205525  0.0324174683629868
  0.8666321182665307  0.1953321803021164  0.7023557172455080
  0.7179313818565952  0.1539956854641324  0.1863524784040971
  0.0442088823062027  0.5282920301723343  0.5004020992119261
  0.9105280330815448  0.7992140463325845  0.6225435274425849
  0.5108585886713425  0.1889780626650212  0.5776784446030906
  0.6121587702718145  0.2988903833615144  0.0971756588027239
  0.8110553860976748  0.2154706106535408  0.7440366462503659
  0.2882760530717334  0.0020653894734502  0.9232862500438781
  0.2534413676624470  0.8582955302284268  0.3160891120468012
  0.1814157811071623  0.0534341350759997  0.9019304378374013
  0.3204471279133940  0.6119196626429942  0.2790285096608385
  0.2899324320639984  0.4547610711483130  0.3723681204538248
  0.4685610077957092  0.9636993871974829  0.2434065754191238
  0.8882180994988813  0.3936333175729309  0.2487471485925270
  0.8164061827981982  0.7966389093120400  0.5802221475366064
  0.7869256274434506  0.3435430254043123  0.9929503694332198
  0.5305835900143994  0.1481042057068346  0.9388076871304228
  0.7036176990048459  0.6883139169000496  0.3262847432768941
  0.8178314430380264  0.3774684872951289  0.2518588066328490
  0.8496029623279761  0.3352275920598484  0.3457317168241341
  0.1809606572404669  0.1541234423089550  0.8673204651817735
  0.3980015755887332  0.7328664465898460  0.2027309785365007
  0.6585599892718532  0.8433349159884203  0.3347111642746112
  0.0421074726197361  0.2380310858279605  0.4753753889961941
  0.1318852037707586  0.0323996214179891  0.3863565498908565
  0.6941490369035604  0.4891621412042442  0.6028781540300174
  0.5204929128805706  0.8001272736002908  0.1829213956630621
  0.3723115465460089  0.9571860506954024  0.1575452978046566
  0.7694781448869972  0.8711970627913362  0.0593049070698047
  0.2862459846100340  0.3207470925306087  0.0814237547368738
  0.9911662242850875  0.9809287678420406  0.8358468248350177
  0.2277851190900249  0.3073660411637954  0.0523102128324849
  0.0730151085235577  0.3133981456297409  0.9586696353194568
  0.0062453820927877  0.8333988394413880  0.7467803504248108
  0.9320540511857958  0.5344927017921802  0.2850140030368357
  0.5957233982781636  0.6601086767207017  0.8668750992899614
  0.6882836746267471  0.4392172503102229  0.1863038002622173
  0.5892130785545773  0.6529104197678413  0.3503362146669780
  0.1525380972769809  0.7998648511154516  0.5865888164620057
  0.2324906045240755  0.9980904385692781  0.0684290744824253
  0.9612684596378095  0.2335640748716883  0.2105425167619421
  0.9156723480540030  0.1615060300144539  0.9968380658081080
  0.5381726128927400  0.0497194844675300  0.4211569520334250
  0.0260619750190318  0.5251457164235049  0.0495994185456593
  0.9342678451822256  0.5889337099683185  0.9960375394258861
  0.8881915071551153  0.2578299982441317  0.9551294271341160
  0.1388967184103939  0.1585089723127426  0.6897144470050589
  0.2471968596439839  0.0058960165638454  0.1454992733431349
  0.9274663877118343  0.5371730536182415  0.4091347917795616
  0.0841447213400734  0.2773883691305931  0.4392555000819983
  0.7800450633369823  0.4549451691248331  0.0282762043068033
  0.0086832487085506  0.5875076676007326  0.0861695011283628
  0.2514382081200346  0.8867187978313126  0.9925942405941577
  0.4541244563976236  0.0442945951285199  0.5690427485638874
  0.9451477637120561  0.1117954050059902  0.7279636973620187
  0.0894214486797220  0.2705044158038409  0.3128114380788365
  0.1356495660470737  0.4020293845648086  0.5490085460472377
  0.5327463967298550  0.6909129646834763  0.7786499708820989
  0.9500096933197608  0.7248981289931399  0.1641177035745424
  0.8158132554694101  0.5598505872470821  0.1849989504529150
  0.0037519878978610  0.0903384376095017  0.0210934618822342
  0.5730988631159601  0.0485252638362584  0.6631816194370114
  0.8326566374433926  0.5768109531871275  0.0521274789240186
  0.0081594390106586  0.0917073287844981  0.1362289644278604
  0.3529833446854212  0.7392585160452851  0.2472059844678252
  0.3115718773152230  0.4734806658807771  0.9719977627079905
  0.1784794127950402  0.7266926280230188  0.9336884747345733
  0.3593513171570836  0.1169957538456694  0.5584334089940849
  0.5888790727578077  0.8160274094983380  0.4838348455806345
  0.6487092763829606  0.0441480532509425  0.4530588631938574
  0.1178919884567325  0.4238534678331479  0.2687063785769624
  0.6685639247129214  0.9890351123659131  0.6250252560623379
  0.7718274332064252  0.2069966660834912  0.1995439569000856
  0.1390352388229313  0.6320819106468534  0.6338662047717014
  0.6763136189792264  0.4217033613827122  0.0137030505713959
  0.6232681874322978  0.6910807869537977  0.1681014154427482
  0.0238432647909812  0.1526935731019825  0.0004419498659033
  0.3028932946039658  0.4584021365702341  0.2644407468962403
  0.4983119558895900  0.4522347612463640  0.2855105424305168
  0.6221754804662605  0.3925992329445513  0.6078626169864478
  0.2791562944387953  0.1496538987485145  0.9749373712636809
  0.1816421512267838  0.2436779923731780  0.7985195913719951
  0.2196838583965783  0.0044439285854016  0.4810822772916008
  0.3867404256432321  0.5527206361184049  0.5952867475242244
  0.5765168731501858  0.6639200225287547  0.2110001732328057
  0.3265657878512053  0.8679799106141556  0.2837327474148944
  0.2231539171708781  0.6529369376232493  0.7048891407856352
  0.1169783421920131  0.9422929229076423  0.4938280174539877
  0.8889988864662628  0.7212341211569893  0.3980583729616227
  0.4360873612443078  0.4442451772234809  0.8951981800514879
  0.7221224693131610  0.6146596796437237  0.1411481569606916
  0.8034758232407859  0.9876149173344214  0.8105881951170018
  0.6961997758845737  0.4604542535858683  0.7138633491672604
  0.9351373477838517  0.1696526168736754  0.2136113067522996
  0.8276744836260566  0.2638125493299922  0.2137017914850440
  0.9330689550620191  0.2673137814820682  0.5882748604427995
  0.6395916779124012  0.4399934189994154  0.1253830405223611
  0.6672373615472950  0.9657776123825569  0.3000600181791606
  0.3385925663832578  0.5536274946315118  0.2596821326409262
  0.0956854354037727  0.2583577482597678  0.9636030737507338
  0.7565546382585104  0.8969201274207838  0.3288957836859405
  0.5891290929310586  0.8260423692163735  0.6913606397143828
  0.7352298132089151  0.2977890357459620  0.3551157601508587
  0.9485359411589477  0.5865813676262169  0.4455687608547920
  0.5962916699604908  0.9505656744230365  0.1741245813057472
  0.7991397069514123  0.9161538407993906  0.6289224124586779
  0.2887725552212356  0.7721308987764608  0.0447285596460528
  0.1132820436527181  0.0120580613146042  0.4965316841360680
  0.1375427155959303  0.0052264412967309  0.9055726950730486
  0.2848149887666485  0.9691482105769869  0.3796695437823601
  0.0219959046323751  0.2654968242122863  0.9888751113731700
  0.9291248710002097  0.7011224135039572  0.2434714547788442
  0.6137790782767724  0.8690272169260601  0.2315965021422569
  0.4838760748867254  0.8971965537169060  0.9616323352660922
  0.0886001121125152  0.8300469378247879  0.5033071079253774
  0.5322963008273170  0.9526469536307839  0.2156129206612857
  0.2790176343605869  0.6738560245874292  0.0184710678180127
  0.7053462013496358  0.6555105848766362  0.0131937084912028
  0.7776479534917901  0.3054756942394043  0.1694501575169359
  0.2053667863245449  0.2978814013097431  0.4227725672718358
  0.4604959298221066  0.9741641076204461  0.3015015168810083
  0.3204546139933617  0.6832422280765326  0.2616034853442881
  0.9982777767893664  0.5054721492915698  0.6428704319615554
  0.5128834801921687  0.2156561425309502  0.4086709527749934
  0.4654700388967906  0.0537821260619627  0.1026818102846673
  0.5035618208651753  0.0435927471984101  0.5139389057350832
  0.0019823212788081  0.1389982460421952  0.4305431927667074
  0.1931169896489759  0.5427601273899855  0.4796102383630190
  0.4851275910317799  0.1849971813544152  0.4999595638777137
  0.1589802601530996  0.1725258563024875  0.1930400617973672
  0.8952335620214849  0.8119807549677169  0.7516220936875280
  0.5512160085332473  0.0610295453310292  0.1476860932429647
  0.7983958662095432  0.6851703592204621  0.7035030614220562
  0.3505874266539551  0.0645906568118024  0.8525010808683225
  0.8003923776660140  0.8298541619545738  0.4855142228533973
  0.2470419238595770  0.6730318853957568  0.7803836874119410
  0.4525208337848327  0.7570642131148220  0.8634274056451172
  0.5468572477830757  0.5859401345973384  0.7557465140637840
  0.0612250819260075  0.1320659870153526  0.2425202756927939
  0.1464637579121129  0.1331398856710233  0.4775489965235435
  0.3129632081080332  0.5105133723767108  0.4214888721561738
  0.6831268456101641  0.6463691501315526  0.6537827529270671
  0.1523457776479589  0.1847161926463723  0.7585969600550824
  0.9876562583730492  0.3096067068353335  0.1901055556941922
  0.0326039639335264  0.6543383615885534  0.0692666634782187
  0.4921573180749188  0.2809884100894074  0.1919872992132472
  0.7492570138362274  0.2500737676244220  0.1421593736631995
  0.7593834081376635  0.1125195435771980  0.8621327234966667
  0.7576680902322196  0.8847591581119962  0.7877636959580482
  0.0328437466130901  0.8170853676454206  0.9057674821289257
  0.6688778186530614  0.3166366759656356  0.4097501401040741
  0.0785308596926240  0.5326529138407057  0.7268737092210442
  0.4675831618775351  0.4163790080492389  0.9404768222539761
  0.0073299337475169  0.2095411325226754  0.6366546019608793
  0.9736905851293522  0.0548279193290978  0.1987827976150075
  0.7139270367132545  0.3032276914646143  0.2496402826256930
  0.8482556169104986  0.5204593558753421  0.7211930780717930
  0.0664911667415228  0.3436727468795742  0.4400398252463795
  0.8964133086337142  0.0248345279246199  0.1361538056747515
  0.5494666866924275  0.7835790889886185  0.5658996378144472
  0.6454710440004975  0.8800089610411236  0.1120584513308268
  0.7989024615315392  0.5782935322183504  0.3988731638643801
  0.2552388648487307  0.5574318385339234  0.4066004371349608
  0.7901969326568160  0.6833202918755990  0.4850335494799463
  0.0961264437266484  0.5632373866593527  0.6714046127293365
  0.5206084443236548  0.1057766432671513  0.8467601141491821
  0.9773807383791215  0.5873391004468321  0.3842404101316176
  0.0661845354162770  0.1118434872410069  0.0192054531939525
  0.7564108757277866  0.7002466538802686  0.9454020669658856
  0.0796875894022661  0.8841450760895679  0.0053738869275880
  0.3447690292867902  0.6560085395491171  0.3208650076011454
  0.6472294906651584  0.6432401176817533  0.4472737248784894
  0.0861445102842913  0.8096116527450905  0.9414126939824804
  0.5228462235713248  0.6415812619515885  0.8569614437386534
  0.8764573561370257  0.2105170603656339  0.9991856408953048
  0.2443096908922468  0.4586194191101933  0.7867312128293631
  0.1368154298916018  0.6044011429953945  0.8525105408897743
  0.2262295973343403  0.9283773803288040  0.0453280698834692
  0.7356113425780172  0.7428243482257394  0.2751422285647502
  0.8364484673016788  0.2307301839179305  0.0936779741586923
  0.4204591078525517  0.5569988749536997  0.7617281526672605
  0.2813222110431928  0.7896600205731595  0.4766587861584246
  0.3306425729225920  0.3648662489542130  0.1929921657832452
  0.9393447481907952  0.3419199985742916  0.1147001530101889
  0.3643445697397448  0.2094630873456983  0.4406715237654483
  0.2878982108763468  0.0113381092218858  0.7922694222383325
  0.9085932724737631  0.0729969519863226  0.8272037916925625
  0.2830363185128210  0.4603352584341423  0.8494092925974672
  0.2532490201002908  0.2667410218761783  0.4122266917829538
  0.5304748370118829  0.2696074642423331  0.0156952021311691
  0.7397198224456852  0.1855106668495158  0.5197934672000027
  0.3189681615675286  0.0323653078903757  0.1420052851838635
  0.0632005178327184  0.2737850879282106  0.0310916035257154
  0.7508966515700571  0.0917354015843771  0.1986821265993219
  0.9595431602924087  0.6927766633978327  0.8381709360894800
  0.6235098276652864  0.8751141820675901  0.0510700840951425
  0.0098614031321301  0.2689164729903855  0.2268464726701893
  0.8933873680712318  0.3712518751666948  0.3785928890574475
  0.0072681520559921  0.3922302176195744  0.0019662450326461
  0.6720160131708808  0.3221780511298153  0.3421193666641787
  0.3852470458001154  0.8012793105433860  0.2250608563769887
  0.1678631458079541  0.5272864745850259  0.1132003019909807
  0.5129006497586619  0.3136187429016262  0.2890651641131090
  0.5385405481365275  0.1366354660189445  0.0048544566213936
  0.6232188388951971  0.7164135325879124  0.4331933768078239
  0.2555786993595050  0.6741027300287540  0.4106054154293435
  0.2590789259187495  0.5054489461680877  0.9955415959390681
  0.8980469872989127  0.0679909665499849  0.0871738462798556
  0.1048101847566893  0.8119858946644112  0.7484640852665102
  0.2209124135053138  0.3885636771792556  0.2319544000798190
  0.1883655076539296  0.9303499065340349  0.7610520218427115
  0.4368417420888181  0.6190148649527167  0.9598285251914774
  0.6040184590567452  0.5028828594830266  0.7194070707147135
  0.5721610919343297  0.0345329307437212  0.4917951929230465
  0.5534027260115849  0.8894955748366598  0.1994630625434192
  0.3704615164453247  0.5951968028320747  0.3345989103192740
  0.7990197062068548  0.7469974094996964  0.7287074636155300
  0.4425697105895071  0.2985866384601368  0.0840189943030033
  0.3032334456902611  0.7517534911508423  0.3680521160210809
  0.3430197819343284  0.2961348914044337  0.2391310554088919
  0.8053703601353084  0.4368550382607012  0.5128088801017439
  0.7513373246953223  0.9889880357237280  0.7700374034780197
  0.3375797854252341  0.5940834253467234  0.2060780942761065
  0.4120657969299159  0.0398740276633908  0.6944835641188353
  0.6382992304146873  0.3555409396976832  0.1955739136455523
  0.9090967392847278  0.9061233130145564  0.2293840861804478
  0.2098870937008860  0.5268609598405909  0.7737073703828015
  0.3578777512171651  0.8072032951578572  0.5937375014126917
  0.4932149037802120  0.8721782979297944  0.3767488180253944
  0.8435919753114915  0.7775051593097189  0.8364932348047694
  0.1124596642485008  0.5043047305025707  0.8352060759804656
  0.2921767849092520  0.0048500408584276  0.0959729139099965
  0.8857122366511726  0.9394374861963655  0.0017070400957034
  0.6561916319328057  0.2614113240030266  0.7116042662492345
  0.6250689062400603  0.6741200113277840  0.9414988025241990
  0.4642899570869507  0.5524782510018376  0.2205514429229888
  0.4379565348529692  0.1904707162466484  0.8412502848045679
  0.1875504187977406  0.1026395940078343  0.3634320128672594
  0.3756901522389118  0.6195594865814145  0.5919147340509945
  0.9586043090295889  0.2642258107395546  0.7051877646124081
  0.0411572013605477  0.8773827250070678  0.6566472772180063
  0.1837511028594865  0.1482738250087902  0.0429674407115526
  0.5886347509439352  0.4209667832557371  0.9236948186868935
  0.7878595624746498  0.9221428537502979  0.2122759539604422
  0.4111412846759895  0.6458079548432247  0.5274256560817394
  0.4841910861522336  0.8260289613119537  0.1241885824594488
  0.6315491699112387  0.3970417930973468  0.9695747309142533
  0.7584219124140457  0.5361884292594996  0.5309793466598580
  0.7655529063797333  0.7324973567765112  0.1565358502006485
  0.5668279489746259  0.3515225534988805  0.8280955663131971
  0.2079460946931311  0.6592504218611167  0.0390533940800616
  0.1268583755607794  0.6210085830957668  0.5309023256978019
  0.0372620049391247  0.2169143067619462  0.1955661296121530
  0.2249549525541616  0.4935104735843115  0.5450520224296610
  0.9597366065578439  0.6812516756886926  0.5046353470790564
  0.1404109736158087  0.8835615342938736  0.4900544744875629
  0.3765360420310874  0.3523944397279590  0.2293863208311844
  0.9473446488512456  0.5365946887634204  0.0382486777277085
  0.2903426580729769  0.0014711951151526  0.2033365502640403
  0.4535152533626369  0.1283973143457893  0.8601339773894592
  0.4533825151088806  0.8591434312062654  0.0534935721300719
  0.4318695324672602  0.5754055440946765  0.5334322482851084
  0.2329387637293083  0.7787483700028688  0.9323007566271205
  0.9103377898154991  0.4764627700446424  0.5507022250847150
  0.0604302166589851  0.5870031951969364  0.1786089108052284
  0.8597897666876589  0.1461077780497663  0.6548229828449724
  0.9502202719075101  0.2445339194715790  0.9875653080880680
  0.5610654923642346  0.3515141735586181  0.1167492904915076
  0.6502010547263827  0.6830426737657506  0.0548327890054947
  0.1700101237473586  0.4835472087866501  0.8093927314612578
  0.8299186688725049  0.8865890391118717  0.3298945980768601
  0.9154650469540007  0.6845410070846668  0.4549212956061300
  0.4078529961170258  0.3092751777764637  0.7133405898716026
  0.9523282179473813  0.3957309097310557  0.2809121153888407
  0.2407200596814473  0.6223462450267186  0.5196185312915029
  0.1821067723591099  0.3265031431422215  0.6807912631485873
  0.1755255024746354  0.3637919033683951  0.5075768923320518
  0.4457109218858211  0.2863818141306427  0.1520231406368120
  0.8210366770779450  0.6751118983014199  0.6351842017761709
  0.1672116892519555  0.4704092129316251  0.5693228992779039
  0.8764973563852115  0.8986189089107764  0.5588862609658647
  0.0432883225907668  0.1643448558219218  0.6441267526056936
  0.0910699784612745  0.0452017422840136  0.2124849496705863
  0.6703614777654735  0.5037278554149075  0.1025934112259438
  0.5125281334808642  0.8604889144147954  0.7814104349370685
  0.8677524231691656  0.4037447397144313  0.3348530273522087
  0.4726675137218933  0.5840913707987383  0.6525961533859121
  0.3577974155231829  0.9161860197699981  0.2121573498725951
  0.6900566465211962  0.7260662554215388  0.1338018916407077
  0.5964058606131329  0.8698201454957774  0.3062688835183742
  0.6311960950948498  0.8762224198562473  0.5604859729398664
  0.8183303660591599  0.3018041258349281  0.5797396864425661
  0.1952401126917669  0.2189739284796377  0.0185931810058447
  0.8584286409239725  0.9776480026072235  0.4354116773499062
  0.7160893592543840  0.8751271430418626  0.4279660818046788
  0.2773391881922976  0.6529599545258368  0.5677450868811212
  0.7011028975541905  0.1949033694478449  0.2925815918901941
  0.9656396599437486  0.0498683308286796  0.8413455554143068
  0.6436942731997961  0.4367178307054715  0.7427849438844167
  0.7933807885380209  0.3437860064277428  0.6702870638959436
  0.4646056759918589  0.3365778797674622  0.4693629122125520
  0.9468920575887184  0.9352507935529151  0.9718464768531203
  0.0934380378468905  0.1087244362311646  0.7875461899530152
  0.3254402315193394  0.0067415862888583  0.4590354738331764
  0.6567152106004002  0.9185521424583091  0.1536705344709067
  0.3179027918288361  0.6987941309014534  0.4793455812274431
  0.9597000327741207  0.3564599025689468  0.3816785692829561
  0.0959060326756579  0.7779144728363131  0.2280224762424349
  0.6611996332103287  0.3371481998796314  0.0207868142626601
  0.0095238835798533  0.7751645861281635  0.4280200113757897
  0.4268334118346345  0.7701972554940475  0.9768830816600721
  0.3833781701448856  0.8960964351592587  0.2936418033101028
  0.5175061159501584  0.7858794384569143  0.9417670351009534
  0.7365075120117673  0.3176051363507159  0.8505792812348133
  0.3358494208714969  0.2504118702808754  0.9318827279626533
  0.4959852375426019  0.9026019503837612  0.2417917981747392
  0.5414716277752396  0.8086879971072800  0.3926172963713391
  0.4190665107576574  0.7920497560709210  0.2865874578646819
  0.2987712392330726  0.1979166842336653  0.6961000359733618
  0.6071127054434108  0.0473335990867669  0.8896180336970275
  0.3940307502064420  0.8332433822384758  0.1407396721170787
  0.5062459715974887  0.5656214982860935  0.4418516428194672
  0.1900965798470667  0.7474970029160510  0.4193453579254110
  0.9791260006044363  0.9665221235196472  0.4061983117349027
  0.5253860531102305  0.3830957475359534  0.5725583011027673
  0.1406497367359738  0.4478109349155774  0.7106350237363965
  0.5740972305767325  0.7534117509741439  0.1633690769556790
  0.4429612213985662  0.5261411788383196  0.6350500482436147
  0.7403028428228743  0.5201230036952991  0.0194515964809514
  0.4201576907123581  0.2617946410927181  0.4659880681817224
  0.3967856648787491  0.3052378156684892  0.8755031602724810
  0.6616927461395470  0.8362042944645220  0.6681371064222236
  0.1258841330169181  0.6153033335442335  0.0850124362211102
  0.6844437252892651  0.1338581303509132  0.9153813220397345
  0.0579309739640837  0.1270652483527237  0.5882519552727490
  0.3316073833781358  0.9377908465568944  0.8512511662229627
  0.1659509179284335  0.3874917524650690  0.0774229617570999
  0.1169764799830659  0.4945912624130867  0.1494034130230268
  0.7644874249085040  0.3169054672050743  0.7161400113377479
  0.9370828347151695  0.9047727645976901  0.6414900882015336
  0.6189551625338695  0.2209146109118715  0.6737720017197314
  0.5962632898961354  0.7391003772614890  0.9503639599498760
  0.0445317520934681  0.6842414893975993  0.5244646693673354
  0.2470678271860325  0.8326158178232698  0.2172644392881985
  0.0075827897158302  0.2204756696409273  0.7232132768260723
  0.0763394308256498  0.8697438694173001  0.2368222701340653
  0.9365055499415377  0.7971808121156750  0.8519850255248748
  0.2931442397015007  0.2395897174725870  0.8890482722475426
  0.5030086703194993  0.9189729271920183  0.1650498881293312
  0.8486283566533699  0.8892710669259855  0.6207657510490521
  0.3764238625641083  0.3643454263558605  0.3435260793028928
  0.2591848483636662  0.7204829805560473  0.9233220789440222
  0.0208804414730029  0.0979928798881574  0.5514741479375079
  0.0365399008311917  0.4771742455950093  0.0916293022296104
  0.6367865953310566  0.4584765504397642  0.4999152060605915
  0.5982844942432461  0.4534026642096893  0.7565778041378136
  0.0524493524294972  0.0488640182658434  0.3531134013582936
  0.8822964240235046  0.1724133043937188  0.2486812450178857
  0.1422236105608331  0.4335151292697210  0.9241348959052955
  0.7922510981022921  0.4277591159022871  0.1190395560983544
  0.1138551850114422  0.4034607900941625  0.8786749490397080
  0.3204651168518239  0.0580469523373152  0.4336463032679616
  0.7393817942775897  0.4130988759654639  0.7311398809423612
  0.6001300177982781  0.6111005514154794  0.1045481160915500
  0.3249151630845872  0.1438601197836315  0.0611258727443455
  0.8753299003520336  0.3395765948351365  0.8860965220895167
  0.5415454084937277  0.6263702923407207  0.1208027886400096
  0.5056896180524236  0.9967575438932311  0.9080185947926576
  0.3509380061103548  0.1901319245728846  0.0765908895553125
  0.5900309979683660  0.5486370353622715  0.0276414796981953
  0.7124796534311337  0.1139854092831198  0.4062192057192903
  0.4194448371273704  0.9730501342282316  0.8392045365435331
  0.2805016472926991  0.7836514171841277  0.2102947498615173
  0.7482620728399181  0.5187305183329416  0.6961521778238834
  0.4609023755469223  0.5157367567410668  0.5270413333992165
  0.5528698735434334  0.8709851434131451  0.9709246089358988
  0.8652375472301524  0.5953381817353460  0.8982956294375427
  0.6561659334493344  0.9518012128153240  0.8477174385247581
  0.7461374414078801  0.4400726001238502  0.0829710082848329
  0.3004130743734600  0.1204807568467705  0.1069502166567208
  0.3427520335319001  0.8544415770796618  0.8478979238159206
  0.7374384675086508  0.3414176118445163  0.1278916221951327
  0.8797523486481994  0.6310355726836012  0.0064388760773269
  0.8975953643850381  0.1099121624087327  0.4236540624990819
  0.0413582594050544  0.5980261686180908  0.5140527611901149
  0.6034701502543319  0.5037667755819040  0.4920966473074191
  0.4648856032408018  0.2319428543843464  0.5699167949553446
  0.2099992731678652  0.8714913662933516  0.6824564503891724
  0.3789521464075412  0.9312629848250257  0.0101944498912919
  0.8334382437827107  0.7350926056536855  0.4316893451295293
  0.9214650841818754  0.9557326338562925  0.5586850679112093
  0.4348677633606083  0.8936745951792476  0.6327610954940759
  0.2592508822929339  0.1891349165246437  0.8962047412316279
  0.0777307243742811  0.4329981428217996  0.0940833863575423
  0.6513118251192078  0.0686817622699931  0.1861062757591879
  0.1077402960467489  0.1870681625466845  0.6419341133029037
  0.6839918044219591  0.9948411819098477  0.0439869302773085
  0.7952330160452628  0.3692215832399218  0.9344632281449657
  0.7762656730344633  0.0269053927288301  0.3532874434064988
  0.8280502029032434  0.5889482724422856  0.3083999768154592
  0.3536158625764268  0.4996778861523604  0.5047883089219793
  0.5204999520303910  0.8600912210720315  0.4394860415496615
  0.3900940032478847  0.1719202473307689  0.8608164397244287
  0.0872834000322192  0.1723769168308905  0.5667532743958432
  0.1943805170417399  0.8295526330818435  0.2968401285548274
  0.0872510720848959  0.7521744993496250  0.4580750954349270
  0.6847725913893404  0.9232815572773311  0.6402500060194150
  0.1069599373874252  0.5172064865305540  0.0958786582041341
  0.3839090114273742  0.0516808327635553  0.1350760150023812
  0.1316046433707736  0.6781194402395041  0.4072569775213852
  0.5139482167798192  0.0742265545875909  0.9964589945548163
  0.3360863310937596  0.7569069681913206  0.0243971066817288
  0.5622739169942510  0.3289481490015358  0.4815272334974445
  0.3043569349701957  0.5813325082434632  0.6427284571514209
  0.3365741925937467  0.6912455552014458  0.5604602744563950
  0.1408640490526621  0.0159548697106471  0.5596959121719278
  0.3826739572094128  0.1464653314786732  0.1957771551300495
  0.2013846573339443  0.1129376467300231  0.6541421592538765
  0.5664119687400005  0.1500724860756659  0.2580595341189634
  0.7951187509042627  0.7267785130996635  0.3059138720046802
  0.7540968948899973  0.7963805091985267  0.1540735444202148
  0.7912136242536286  0.6441962502436031  0.9429950501690942
  0.0827700200731617  0.4594271336189513  0.7118610276188743
  0.7491288938606602  0.2741847924566374  0.6755676925633364
  0.1098095546957421  0.7549683341889285  0.1402689801835847
  0.6202890255585691  0.5431268335758679  0.6297419333721611
  0.9622791921659913  0.3216646773672515  0.8628136960644784
  0.0016089752996334  0.3087272041716609  0.7801129222310182
  0.8219384331385367  0.9336474316493768  0.0218323142318860
  0.6265285056128748  0.1389768585724366  0.7527216163383120
  0.9357801823124248  0.8141146229561331  0.3301725141401401
  0.7281610170220639  0.1219192201480343  0.0186936110982477
  0.9727734844670357  0.6046672526539493  0.6904639488621276
  0.9930403513695485  0.9842275592594666  0.6422760893539673
  0.2254065754680362  0.5379730585819581  0.7061952941412005
  0.9083436619864808  0.0418019399977692  0.5167413439797227
  0.5147275884684008  0.5305527145900548  0.4938466395434598
  0.5193362949034654  0.7205439120327997  0.4049729782476458
  0.4103003111154345  0.3482716580955766  0.8365303300069976
  0.1076582657426248  0.6985009447248064  0.8207137700465008
  0.8650957213967340  0.7290782666610962  0.8612726064281345
  0.1344543165453589  0.0369581040777477  0.0307828446267474
  0.0500542304923561  0.7760084647346761  0.6496485745759277
  0.0765976121296118  0.7956656444278760  0.1206204318288552
  0.6620270498897481  0.7065749613013554  0.8041174659556328
  0.1081943863874786  0.6537242050777672  0.8941356036262162
  0.9088107784787960  0.8253852329230860  0.0289263340389270
  0.2894659673448146  0.1807117543925843  0.1695920950828914
  0.0449416848045373  0.5396400335431327  0.3268624377364941
  0.4636495061858301  0.6288147022931718  0.4017919529240407
  0.7955256808034045  0.7552896769648572  0.3558848524460518
  0.3573648243847486  0.4228713388343953  0.3464428944210693
  0.1878849087688365  0.9236222670263108  0.1056639610037563
  0.1910348352030234  0.3948350754949163  0.3628881733663195
  0.6969289424199390  0.1777237097821774  0.6858744231792191
  0.6583593176357031  0.3453514910012950  0.0805605929567129
  0.4039358768407718  0.9968443973185285  0.8921492225864182
  0.3428863732853510  0.6503185228667719  0.7094907335825216
  0.5807078116300358  0.3550622030215372  0.3218591292255180
  0.2876430882505805  0.8423393790852477  0.5604530118415010
  0.2661906460218336  0.5098116920454062  0.8117827649124507
  0.8954755002079048  0.0968726774070146  0.3048927483505732
  0.7800021580428389  0.8547230685841203  0.4383956064785398
  0.6826928764371087  0.1404596331355990  0.7354882878107862
  0.0936712795175271  0.3523337689604593  0.1558362741654543
  0.9744481317290727  0.1472018537393799  0.3627603885883627
  0.7853131779602502  0.7162440715737173  0.3977059312962758
  0.1508870348912602  0.9480392527885509  0.8162869269372196
  0.3437740510463018  0.9765615154190700  0.7853132524486079
  0.8961032135998266  0.2066787497720254  0.9100821457712276
  0.1477140077550833  0.6743288766833018  0.8548333113537946
  0.9714823777597640  0.4717746962642483  0.2806400094174760
  0.5495480279792412  0.4754903245324152  0.6295583195699673
  0.9228638265662956  0.2992721548177797  0.8249508168198835
  0.7260502404245929  0.2862401745181188  0.8983938050932391
  0.0870974398467520  0.9514358474198836  0.6306215663904600
  0.9999565953994451  0.6223370457145195  0.4761164736688213
  0.4648167015097553  0.9004913227630060  0.5194145449234268
  0.2961541466449478  0.0959665265333077  0.1624135403006923
  0.3188673043309483  0.3436972535493193  0.3499163610377425
  0.0980013063836435  0.7514462266745545  0.0365497728663731
  0.2787688991115095  0.8845217637154072  0.6928705932171295
  0.0476939365180499  0.9219709346202926  0.3378880554943534
  0.5178199354019403  0.7725897470610505  0.0844539876909795
  0.8943114706391897  0.7911855421427049  0.4503504292568724
  0.4505109889122999  0.7187894877394645  0.3454326833113929
  0.4985137448511086  0.0901776265558663  0.5605044460526226
  0.5313643769817809  0.8220715438340824  0.5112246244620039
  0.1732360655507702  0.8549673159096348  0.3897085632399934
  0.4948383402962011  0.6434801191708682  0.0882361340627404
  0.8601733817307819  0.8789072782279606  0.9629726042895703
  0.3265981530427076  0.9204454875391053  0.6929683964310364
  0.8634030479520879  0.9595625272654595  0.5563744018053460
  0.5869314629082903  0.1773085675415783  0.3405454649061852
  0.0301993121420979  0.0254226414432795  0.3003727575497532
  0.6305547503334344  0.8985657987116024  0.8277988046953715
  0.1042241196678717  0.5454683006177179  0.1770050461052744
  0.3594369415244758  0.4616488606254965  0.6619484646721763
  0.6439882042600220  0.8894630234242626  0.7689311768750258
  0.4606804747287740  0.4123591693274576  0.0132989710158238
  0.2130748602208800  0.1952622729782386  0.8041262555818636
  0.0472879703120382  0.1761269400983122  0.2906447083642125
  0.7559439082121873  0.5322209558533134  0.1100748822265390
  0.7940716680574318  0.4483259474220147  0.8515121734290021
  0.0386456308424158  0.0343560767600057  0.4429026735492663
  0.8913084724909368  0.8726072018945131  0.6610968392764434
  0.1257409943261916  0.5676409894009729  0.6190123695927274
  0.1234386616053671  0.4625381771303207  0.6209107053935020
  0.5348124803125932  0.4948119341733297  0.9974779952907235
  0.6901799247535008  0.1921132404043463  0.9989223990385288
  0.3533748554944803  0.0937242034958065  0.3571794228619655
  0.8773783301939524  0.5387663968376438  0.9179858074732870
  0.8041774290837326  0.8708430941146527  0.1668109605086078
  0.2191402051165330  0.8514439420931769  0.6282967102524192
  0.9635232967194358  0.1667860441528942  0.5177669741794820
  0.1306632222596067  0.6723904661459835  0.0981116236416755
  0.9172983544183390  0.0155226754554947  0.0053080258345883
  0.5436045646591823  0.4861588451025597  0.0535176411807144
  0.0996879276492109  0.0922213729422828  0.6154037438506665
  0.6344239735955665  0.5576130687086648  0.4013845388505725
  0.6719278934434993  0.8724165116983199  0.7170501100944229
  0.8386437136969949  0.4384829068339844  0.9406471771284659
  0.4007766766060279  0.1036596562028415  0.6113570893200455
  0.7691260384192606  0.8082991678791047  0.3504218390343703
  0.3590703470711303  0.4833999080589266  0.9280561120412333
  0.9164088144484410  0.1319189376858371  0.8653533766266682
  0.1144682521299943  0.4105261225723718  0.9745068285550886
  0.8700664784953128  0.6027979300685721  0.7883517070552155
  0.1401284392743397  0.2290163371575549  0.2055744598663365
  0.4571679762125675  0.2162446191803545  0.3874951416853529
  0.9402463552746708  0.6933838924913354  0.9893556357699050
  0.1309032051266322  0.0376186156247521  0.1356126663767850
  0.8241948344756788  0.3197158757040079  0.8081014012889122
  0.8473036556966906  0.8995287097140200  0.1437488527990363
  0.8418160983710848  0.6733976232329866  0.3730625381702353
  0.1749045861453709  0.8958499531830075  0.2211324707366043
  0.5605088781099169  0.8634615213130301  0.3730276403745648
  0.4060955550451962  0.9821834497423053  0.5161410795476826
  0.3399758524334160  0.8447642730879322  0.0461244156066046
  0.9529632311983763  0.0996314375407977  0.4478299666910177
  0.8944422721956410  0.2883093121235304  0.4516748322601203
  0.2659816503116895  0.2926671231471389  0.8040641322913851
  0.5450488939186298  0.4138392157545124  0.2578481547813668
  0.1188440427809880  0.7068212198125331  0.4580977026515460
  0.6374537130643011  0.7879494699226206  0.6905529624498037
  0.7424422974381323  0.9485115834659184  0.7140066647678368
  0.9849391465423702  0.5240889873343274  0.2513087101098464
  0.3851347918447783  0.9352940712888480  0.4840401354949736
  0.9682052624544832  0.8111816438642949  0.4106322312381832
  0.9682609797461834  0.0566557798322656  0.9856479032676742
  0.3319616500082509  0.7513269708135760  0.1160480570903504
  0.2464720506775552  0.3504247813245068  0.2800631901960812
  0.3200029910794870  0.1322870405284299  0.1981451027831287
  0.4261001856837645  0.1922300567716041  0.9368046951868158
  0.0634881127270014  0.1452593370313330  0.7591798314555557
  0.9305791816996141  0.0492343743812623  0.6234796598803418
  0.8028022250204052  0.8628891527710189  0.9525090756803333
  0.3320496580030955  0.9234966796549116  0.9121036853159488
  0.1183511998720670  0.4502255867690522  0.0147789720515354
  0.4291527185900129  0.7819406430685152  0.1370515672971513
  0.5150557841732551  0.3148390484247257  0.3547560186264388
  0.4801040216874583  0.4415587918404307  0.4046453412054756
  0.0020826962323681  0.2007017853130064  0.3616536405668634
  0.2752565123278398  0.1187318167587851  0.7081563491393168
  0.3720641334652841  0.2761313408470549  0.3211066850783129
  0.1489335311504248  0.1237565406726539  0.6324591196911979
  0.3291523215905067  0.2599328604535771  0.1582082069456805
  0.5661040711126707  0.4201094595006257  0.1753162646773281
  0.8443683674657577  0.7673772007527673  0.5216899035476511
  0.8395188029254624  0.5922276968866608  0.9857028011874376
  0.1865717348855403  0.4745643597555101  0.0746975165413822
  0.5600724880652304  0.8175025769379510  0.0778844962780960
  0.7077685627481520  0.2379794467738547  0.6959369809579451
  0.7500806316093948  0.1578238097747997  0.6652903848488194
  0.6278286254114511  0.6591539594376518  0.1060542148217761
  0.8113591496211421  0.5653736010310425  0.5103632783355666
  0.9054219306366834  0.1020318248737370  0.9568910767981661
  0.6796066003047371  0.1526669621361270  0.3338264660479758
  0.8329641253847541  0.5226892766012549  0.6514942471076755
  0.2084797106669510  0.7061330218740063  0.3715495306448151
  0.7486646824143026  0.6219480675096286  0.9792842138765904
  0.8583722532370514  0.8186171462370285  0.3931455678054806
  0.8963234011857434  0.6930402032080404  0.1579628795389765
  0.8455061771324962  0.0797983908346244  0.0759277662602597
  0.3259624693964918  0.7701974044707631  0.7349586010978451
  0.6675023166363022  0.1187230178215095  0.1547034831518285
  0.5787887680657685  0.0214895932972435  0.9809556581392384
  0.1746188115603338  0.9779445407599755  0.1009638573535632
  0.6289236787607619  0.0954515605820940  0.2936552857028805
  0.6168089667222227  0.3484843596015256  0.2475185376175231
  0.8140002088384173  0.1285174640670625  0.0726361722804146
  0.4524694740620689  0.8696752656396854  0.2598948155247858
  0.3033649362640228  0.6771263614521420  0.7433471820097550
  0.2682951655972420  0.2576597178579998  0.5521574668885930
  0.7133863257233459  0.7828534978944319  0.0950426567414681
  0.8296743470586325  0.4915746701395192  0.8711760570744118
  0.1493646418327461  0.8379859070084862  0.4437237587182652
  0.9614978092917466  0.6120026799178604  0.9352831215002386
  0.5987894508213686  0.2516959750825059  0.5329647593510036
  0.9272814331191985  0.7748836905305680  0.0300608918232915
  0.3641776040855389  0.2961357293984599  0.7627060358296136
  0.5740376398904221  0.9165335824479034  0.9078925604911111
  0.9779177249511358  0.9929459001317466  0.3524155199332413
  0.1296306460204744  0.9405515340769379  0.9134502113614895
  0.2868659512127355  0.0292670996541749  0.5510007744231300
  0.4384451784807142  0.9516628879347263  0.6119734804815683
  0.9387429567474184  0.6672407135233998  0.9348227834484909
  0.5150478511631401  0.2371042644349396  0.4712388642617812
  0.1729836803721563  0.5843890262768586  0.0974529882701855
  0.0214557453218670  0.2742635080288355  0.2961038670033734
  0.0184465180846857  0.2901463253836737  0.3810410979161510
  0.5586910269798403  0.3553625773247204  0.2545547451477982
  0.1178447814599211  0.6903492367909803  0.2550411541248066
  0.0722420078236058  0.8963457476931097  0.1812659291531812
  0.0023804209613836  0.8862352194119041  0.3645574574665885
  0.4723446811788068  0.1738824568984324  0.4284748372890535
  0.8111111778777329  0.3816497050442746  0.0866232469604372
  0.1011931418301871  0.4224997536610712  0.7850401036402328
  0.4150611600214852  0.9336178597712953  0.4336330070960787
  0.8690996940982850  0.4481292236688325  0.8906656379623638
  0.2150686714743774  0.6582917566950987  0.2447938838406080
  0.3392304474360312  0.5925673265544509  0.0448328386915735
  0.7115855696714045  0.6745871278200993  0.8218380973204615
  0.8832198561962418  0.4829765907210495  0.8105298707327755
  0.8514449104418292  0.1616161051853228  0.5274451347873271
  0.7408009464720711  0.1540088512813891  0.9016872333488971
  0.5010640027601184  0.9687701821607057  0.6122070759719049
  0.4347618409156916  0.7069482224627320  0.4404451908900058
  0.5998110214056229  0.5358680548322234  0.5475999711995764
  0.8941895331973271  0.9492078261470972  0.9439417971978503
  0.2348380678787354  0.7461543502651204  0.7816995242540317
  0.2748246474508949  0.4186855400512395  0.3143330862537717
  0.1714779727058092  0.6934603920348863  0.1370964185996446
  0.3063061835635866  0.0401786664250631  0.6073947556105536
  0.6138403077069562  0.7993835073467798  0.3615157998605918
  0.8506872893537508  0.2073082881287155  0.4260166469903931
  0.5636457318372945  0.8490581544783834  0.8183259712460444
  0.9704992059240007  0.9866917831151160  0.9480488617867183
  0.6430895767104617  0.9156587911728672  0.6867425105020453
  0.6418390661582387  0.7937475692122611  0.1832785114728664
  0.1894955705314477  0.6604021608507803  0.3349152251310452
  0.7118724243376311  0.1067998712173687  0.3467960437258161
  0.8873421908984770  0.3747392338621142  0.1155344598627130
  0.1559936866877610  0.4697470486741802  0.3794280897702663
  0.8885211181387697  0.4451248102417797  0.6652985785681871
  0.6819925368962462  0.0891735514246708  0.6400313082006559
  0.0870136963103964  0.9062891985875728  0.7538755154903544
  0.0964696395245724  0.9061796262131199  0.0964765576308112
  0.2855809153066314  0.2636259932376618  0.4617015238945232
  0.4111641898460400  0.3638837847578499  0.5630477765443489
  0.7913650590852150  0.4150045861136694  0.9011276023160849
  0.3954059542697695  0.2439565043433210  0.9457465756211174
  0.1333343840845135  0.4135995122188288  0.3738728225273404
  0.8728404249430602  0.4269138220169746  0.8332084471986264
  0.4705901823971139  0.6898503137698467  0.3937275825898380
  0.7375369411177787  0.4746540437384072  0.8592261877718789
  0.4291374484766458  0.9289353726177427  0.3391645252393005
  0.4692096524161975  0.1122313201873953  0.9731544179292747
  0.9790270055768032  0.8376554021645373  0.8087082579406254
  0.3623576300372625  0.2659728048191903  0.4787423000169086
  0.9704037118491885  0.0523391794926586  0.3667590726165039
  0.7993070822915865  0.6437257817751827  0.8461488626843535
  0.7913264741158289  0.4275626156141787  0.7108334607218099
  0.9718059551864291  0.8267347385029421  0.8687069914754998
  0.0757557540198069  0.6789444732914710  0.1191834117395255
  0.3501048538273781  0.4708683591696466  0.8364609813458039
  0.2912589021191777  0.8636948188499350  0.8607842607538211
  0.2380183110745827  0.9507548748520720  0.6099028903531779
  0.3309422768305542  0.3716468124402168  0.4343279834751733
  0.2374807472177948  0.2485254526173630  0.7203369833745867
  0.9916632106089159  0.1751756492797252  0.2810939973367136
  0.4230811352943867  0.4735224910937312  0.0773214620584328
  0.7792968277819978  0.4085340431731953  0.1737595324858278
  0.7008973096864197  0.0227114048818290  0.8937207779611382
  0.6929423255057756  0.6541925878721666  0.7401134189287654
  0.6567820266574256  0.4033992254663680  0.3642282189247238
  0.6286023359848333  0.9874446369482895  0.9560097305476358
  0.7869206367234721  0.2814178168505420  0.9729038390933397
  0.4702934207792883  0.4879636235258270  0.1000188794233071
  0.0981733000020067  0.7227728271658808  0.3053883007735123
  0.0868308460138710  0.7773631100112265  0.2858767271978940
  0.2578671306905388  0.0294384252050784  0.6447020261936622
  0.0612323724740358  0.9662662560103020  0.9608911761051070
  0.8715885736003953  0.2772075858859990  0.7825429559303970
  0.4852671077261041  0.8375870218519962  0.9325896224790100
  0.4256468867818374  0.8699347830785671  0.3219524258937727
  0.0853867867747209  0.4440840216611904  0.5473279397165696
  0.2876574458815634  0.8292115508910745  0.1386738864877721
  0.8084017383479164  0.4794215221083099  0.6188924433365278
  0.4595549928852660  0.1297723228771772  0.5320879941344834
  0.9899539262604611  0.8418475324581135  0.6804352832862406
  0.8671763302092603  0.1942946878313634  0.1706321015357230
  0.7018926231245186  0.3822844948301957  0.2136093328108155
  0.1222173970446598  0.2437781605924478  0.5586809710515255
  0.5144875869792858  0.4652746559340505  0.6797850744102366
  0.8465871521821664  0.0990447951672064  0.5183762889470055
  0.6089776704598515  0.4517986691551090  0.4191878522926569
  0.0541375332950580  0.4632176971751537  0.9365231291939993
  0.8766000758307391  0.6911130404127632  0.6302924768253110
  0.6718608539214002  0.7329533745035013  0.6375393001875144
  0.7612401049463786  0.8220822701576183  0.2887474154004484
  0.8317828890053667  0.5091554123682345  0.7880522638565060
  0.2776369554029547  0.4551103843026285  0.0269599414844159
  0.0974038073318900  0.6780110596787771  0.7676691206273302
  0.8469720335273733  0.7913129172346933  0.6369147897949817
  0.7876739374867930  0.4879623199795639  0.7198484887235576
  0.5287102078135173  0.6291547416469304  0.3584589466295859
  0.4166621010533921  0.2551087709316794  0.9983674607722635
  0.2351601182940640  0.1777167637428043  0.8420806065299450
  0.0085870330277712  0.0246005972366728  0.9845315462480073
  0.8765565001413745  0.4599709358757123  0.4077311331635211
  0.9675948303615914  0.3535390650794443  0.7703944261773767
  0.3178222699139592  0.9606913238408936  0.5416895434662409
  0.0575849708861718  0.4049615815288889  0.9531134742162362
  0.0045549659945499  0.9357779476616883  0.2629636800035011
  0.0102986195320371  0.5237271228917078  0.7120906007378849
  0.8153297515383594  0.1838837666248850  0.3817669124754112
  0.9349483708198900  0.4998439207020928  0.7847176435389359
  0.6550022763224087  0.4615120255120562  0.8979520891309635
  0.5988055775508514  0.4652816578396920  0.6622463436153703
  0.5956871224478721  0.6573905220530123  0.6294185049222116
  0.9809650436723321  0.0750312802509887  0.8903125631459748
  0.7838237087559226  0.3631083237080573  0.8063527125991345
  0.0977627760395968  0.9693932772744382  0.6856621313592384
  0.5318794267323972  0.5771826500929884  0.5253054194628167
  0.6847658129487726  0.7879028402105828  0.7285498462502390
  0.5060536799016010  0.8039716177508882  0.4357010646203009
  0.2041012849902969  0.1022460347689333  0.7687813807873131
  0.8433705959118486  0.0138016615184336  0.5763319185575501
  0.8284315832956297  0.8093332897516632  0.0999422215919957
  0.6248770987184987  0.5813326199760001  0.0623492369456407
  0.2784685248083263  0.6119334802333825  0.9879467629688122
  0.9024888770564873  0.7395775496821194  0.9902854739414205
  0.0324974921369703  0.4739902779812675  0.7865385859358648
  0.9640012885120028  0.1133901448821029  0.5460662931548423
  0.4548355222620220  0.3083225834116136  0.3642886289829709
  0.6915233967763681  0.5279233500449678  0.0462250586891560
  0.5546597915393021  0.3271533147740466  0.5827877500473413
  0.1116274430699976  0.1076311147361746  0.5158308727812583
  0.3553695047420040  0.8755739242124746  0.9327175189895036
  0.6658264030721811  0.1428073944436905  0.0798167242817096
  0.3656015607791040  0.4975821934473618  0.5643868537541007
  0.2901489510982892  0.1610905153320654  0.8238533053547623
  0.4294376738031132  0.8429451928999504  0.9098172651705780
  0.3403416647590037  0.2413303986638917  0.0397638267934179
  0.4232758478619058  0.8600751315867278  0.5351076404307243
  0.0190350936639403  0.9705751095606885  0.3096139135839592
  0.4129900484745896  0.1793866065057576  0.3703957059811307
  0.3013520001246377  0.7238541001689823  0.7050956225137007
  0.2402507644046637  0.3357328838355813  0.3360603346568567
  0.7177637085629894  0.6627020633889288  0.4589661624161617
  0.6159793153920667  0.2335923245814173  0.4338776268633827
  0.3591643513787848  0.1933570656264489  0.3878738777410342
  0.5327787991655363  0.9232734380463213  0.9549981041591593
  0.1356016700329518  0.4373903488446629  0.0713245067863656
  0.0337635242007682  0.0156405905260313  0.0396524108321070
  0.6958446898825219  0.4357425918798234  0.3909855544034457
  0.8176496169564220  0.3367967638071159  0.4635010136443804
  0.4312640538501680  0.2687502335976690  0.4065865078120358
  0.3854959114038191  0.1505188668713542  0.8087157067764141
  0.3696675822827759  0.2829210850231683  0.8230292406514479
  0.7116257933846640  0.6490063359542178  0.6021178513610550
  0.8138580850515672  0.5779581856311389  0.2514531616578806
  0.4771096641887204  0.5080296325712949  0.5868349632406464
  0.1321058569089122  0.0799070041714698  0.5661377398504360
  0.3021758599849679  0.9501898061691340  0.6014139363790139
  0.1849409798883887  0.8063406454851567  0.3529132138964698
  0.3324517461589748  0.3469139960405317  0.7518043666992797
  0.5408130389589733  0.2859333197277993  0.4026664834898243
  0.8690419656209218  0.8462590309656698  0.0717856223103486
  0.9161326861057504  0.6365489029810362  0.1666399538609865
  0.7272024263444038  0.2589249026167267  0.7996084621876012
  0.7090476023414461  0.2227105624647290  0.7534289577848161
  0.6179400351925725  0.9278382335944110  0.9450532379858964
  0.1468034900013951  0.7707466816218289  0.3835711694801733
  0.5181708873001294  0.4247138828551117  0.4508979559315278
  0.2724399026731120  0.3311973249679626  0.4282454876351165
  0.4537099659301561  0.8298224299141136  0.3064435400955320
  0.3987288426709722  0.5801916817982302  0.2757274277264075
  0.8854197953581044  0.5260264295229932  0.6249471922632713
  0.3624870908032717  0.9733036925984824  0.3019709983786866
  0.1883883197135328  0.4517199722050004  0.9547246573973527
  0.6659709849748416  0.2230590748691973  0.9346545142480220
  0.1463561129239200  0.3438729343413980  0.3060385282716058
  0.9056713921472502  0.4967491528969219  0.0581978098841278
  0.4124733599800998  0.6114751161231189  0.3830071436342457
  0.6116286738729050  0.5504894863345871  0.4578838838202287
  0.1797542810402925  0.1398163609879233  0.1128880374836697
  0.3833024154849135  0.9670154599139389  0.9780585079475442
  0.9363297574169221  0.1982756063861484  0.4800794032851763
  0.6841020471916330  0.0490445361456625  0.9705698953756365
  0.2550908751036968  0.7025519940685430  0.2616674149774454
  0.4369745920751112  0.3007008415220707  0.5108645104957946
  0.8085129494662432  0.0877971741697067  0.4243076233511909
  0.2633391944377038  0.5327647581100744  0.5755696419471037
  0.0239552161373644  0.3807646716200287  0.9159595751620188
  0.1027415220145593  0.0251567761996491  0.6721381740778171
  0.1885782650261471  0.7925119563316158  0.1522609819635482
  0.7697147944000070  0.9727737824204673  0.6107049809909154
  0.2241742214530484  0.9115030856862982  0.8175099512853820
  0.0789609554710690  0.3925403871418198  0.6535945208466842
  0.0799165479923242  0.9642835249000404  0.7653589386957931
  0.3994854209220401  0.1592351593137922  0.1009677679923523
  0.4070258773910378  0.0468645133084899  0.0122895757864423
  0.5794600943912337  0.9458860923154415  0.0384342258994462
  0.6971816814182528  0.0961173282138518  0.0617649735439794
  0.5284987726096523  0.6984893245409758  0.8337419328178199
  0.5485149116995142  0.3609877146473452  0.6755554764726429
  0.8184603482436745  0.1234848071430786  0.3746059741898526
  0.5159569443269836  0.8483113342021987  0.8810640141422484
  0.8392762688321792  0.4162480202718930  0.7492943325035295
  0.7201687141741179  0.6160407682873243  0.5194565936014545
  0.1595059058726255  0.8264744016921237  0.0718221821275045
  0.8187542793039002  0.4127694884468834  0.8056741236587753
  0.9136810507825841  0.0406211645150965  0.3025175939488684
  0.5710906942314798  0.8614641904846223  0.8752159331644652
  0.9594449846367124  0.8022262810372155  0.6687183390788232
  0.2391760463770563  0.9234613721732726  0.6688700718638408
  0.1108585090625650  0.8980539892045543  0.6467284074816462
  0.7181465042341757  0.4461439971985818  0.3337187558824699
  0.4570021278837300  0.4068563418884850  0.7299800972100456
  0.8044858853737467  0.6111246483992561  0.8978074327399451
  0.4099265657797317  0.8697631619019931  0.9554259652868677
  0.8530924439415950  0.0931000469229739  0.4570111782192134
  0.6665715101161344  0.8215664382792444  0.9821488126558875
  0.9792066714960290  0.0496164391354367  0.4262846188578950
  0.7193212601264266  0.0104794563151384  0.3686649689856040
  0.5979178253015427  0.8848611326739448  0.6592053564045944
  0.7578066385778912  0.1860560147397030  0.7484179769729775
  0.8857433727847698  0.6504067170825113  0.9050557458693063
  0.4678064034861253  0.6364123658210277  0.1414195459816116
  0.9037861662974639  0.9566116709677283  0.6420910602729737
  0.9875879525488661  0.0999368025639593  0.3307500968672033
  0.5485980034627382  0.7108527532065029  0.9702407313221295
  0.6772248350612697  0.0106882751154325  0.1934337886350734
  0.0056245990278509  0.5740582359213781  0.2608376891589315
  0.7574561708540284  0.9726037254994091  0.2199747726783097
  0.1636999914855962  0.0196240928957305  0.6572764058887279
  0.2657163786471610  0.6973176226713983  0.1701180760000277
  0.5815690832681153  0.3055733484765955  0.5320463178982451
  0.3118130333738853  0.2636576880339432  0.8344630546105334
  0.7764983001761473  0.4881353564349376  0.7758466015329858
  0.3883697094953154  0.1910521165020534  0.1539844749662703
  0.2495589785830583  0.7341156908399850  0.2117027474244049
  0.4867283830869710  0.3568602030042368  0.8833835816068794
  0.9748589350228248  0.9062222335538316  0.3929824755458848
  0.7487574949082308  0.3792833216467111  0.0800158037292099
  0.4765550611200656  0.8900728596102914  0.4626255147299443
  0.9545965374217854  0.4575188536223987  0.8242956917122589
  0.5007058999795722  0.6519665777850430  0.4751877528226744
  0.3962603729789232  0.9549102078968515  0.5710273046389172
  0.8515733283708281  0.7016827894203482  0.9164891128982444
  0.3266908538040992  0.5340216746610758  0.0532929656712349
  0.0606113257901449  0.3828677014282794  0.7592932027362611
  0.7006913493768597  0.5049161309441151  0.4574186667810394
  0.1786208848087589  0.1859514517073178  0.2637473720168403
  0.1428172734621554  0.7629428343193394  0.8549121200364399
  0.2648094084015173  0.9767804367029025  0.5273649853142397
  0.0620218094019770  0.0519826689007621  0.6451231833691607
  0.7959419217472824  0.5012509312942383  0.3216333177685807
  0.1272710131303444  0.0062005837468613  0.0829393227995963
  0.0924641025675055  0.0821833218333020  0.3282109377235187
  0.9786550852058689  0.5371340217187082  0.4937511827128264
  0.5935469229490353  0.3887592091187114  0.8695558608019909
  0.4522336811651747  0.3826945532403688  0.6435804549889433
  0.8842589687887786  0.9139517414751491  0.4922270391779019
  0.0727902886928848  0.5346396673222932  0.2280170944585775
  0.8346098711639304  0.1377297372404975  0.1280821634146101
  0.2152604231296704  0.8757068859313045  0.1870211045265888
  0.0158479183952871  0.7291586395992573  0.8289503202199614
  0.4835882146276674  0.8125236261200043  0.5847879114333486
  0.4822219491672865  0.7001315693673316  0.1373883198521181
  0.1150702111721763  0.5968928654970045  0.3652829368282383
  0.8397611135536719  0.1483512370347252  0.2830321285426898
  0.0001706972554258  0.6204711495936052  0.6054046129086821
  0.1933198400695943  0.7595513048963429  0.2055292826772775
  0.3121578399825486  0.7020106126834131  0.6476440183768050
  0.6235229003720958  0.4650494031397973  0.0286546819809932
  0.6568340195312314  0.2891293172113399  0.6032881751960116
  0.7686051413325502  0.3904373573335693  0.3615899902650482
  0.7932683856059679  0.2040278767135984  0.5998463661314408
  0.9505674621436259  0.7155572889139903  0.9029867572406104
  0.9653618183688263  0.3825982397936197  0.8607718211980537
  0.0280157604189704  0.3304338565437900  0.3091304655191769
  0.1745487366376507  0.6079191536500848  0.3657401463689545
  0.6652604405289485  0.2731443390736584  0.9630250440935233
  0.6764544764639925  0.1970759155160945  0.3660545244834206
  0.7230715999693693  0.6217709341945711  0.8411801167714374
  0.9270833685755745  0.4172100001698370  0.3376217968590829
  0.0090187611487465  0.1871570457797343  0.5441614396227527
  0.2685628581334019  0.2075029820741451  0.3824080337717528
  0.2483498276915526  0.1727072168318552  0.7075214848650377
  0.3785003372727718  0.7209038397781141  0.4398266768102831
  0.8595566926158276  0.9667363520369328  0.0832529187863046
  0.1605493387899199  0.0824253531301694  0.1157646009554525
  0.7606065069741836  0.1218732235870385  0.4403104414505866
  0.1574624853727747  0.0794159489831382  0.7405704794927657
  0.0893064852103666  0.2967065709291343  0.2446929334935803
  0.5704359415656447  0.6889234551326467  0.4000185340994443
  0.5159166461253663  0.0029854750530299  0.1148640273975425
  0.9194421293583543  0.7470086572417376  0.4543673629326962
  0.1332827077862287  0.3850240649007778  0.4238134303407832
  0.2492616769246380  0.0619614272768641  0.4751775106734647
  0.8879397365054540  0.3461999133976388  0.9439233985734520
  0.2992783932177528  0.3637034111992242  0.2962271266135885
  0.6307233174873349  0.5070470566423948  0.5857832621156264
  0.8365476857943855  0.7903337677702561  0.4413703362949742
  0.7600888873752203  0.5199580492267561  0.1674089530457323
  0.7931024255445935  0.9710088552686701  0.6560059324565910
  0.8300522264981980  0.3820099307430206  0.1862010063283319
  0.0170389977128408  0.9522433012193890  0.4496544472849463
  0.6601045053726600  0.0124642859021073  0.6804549482127230
  0.1834127953600490  0.6105656877616649  0.4836451237330939
  0.8010875775101823  0.1934044402220656  0.5421307752541902
  0.9901647283132839  0.6661381368499423  0.3078770685430857
  0.0651912471304082  0.8173410116896921  0.6164107892051327
  0.3351353009844251  0.4226211324402496  0.4022395534665894
  0.9976242904256154  0.9112382050856488  0.8932970136931137
  0.4634111434405886  0.6896122489780366  0.0856143021528449
  0.4981316195751434  0.5141444191144960  0.7152429480437031
  0.5856292946798720  0.1473489123799402  0.7959318658189677
  0.9368421628308333  0.2689262682094477  0.3136422067343608
  0.0673373963868312  0.0118122183087979  0.3966782899108536
  0.2519835932544007  0.2384355948554711  0.7779653483847506
  0.0334525865173320  0.2474916100761466  0.7570420900725292
  0.7541943256621150  0.6213244882215696  0.3865858995447935
  0.1630464678776663  0.6530210349793049  0.2800068583754284
  0.2794141172675350  0.8556280276441011  0.6182398508330714
  0.2464832425533278  0.6525370841181068  0.3294842044690764
  0.9488721071180960  0.0756723968918079  0.9382033630828779
  0.9361208920614043  0.2656851121589375  0.4153517391056062
  0.9765567481641652  0.9264905902235021  0.0258756470472975
  0.3487749014414676  0.8084759287523728  0.0071424110523548
  0.7096025406077114  0.2836604564635642  0.6036408030822532
  0.3321575916336751  0.2079669886775187  0.1329276404062663
  0.3623926395654699  0.5618785700347607  0.5021856112090164
  0.4190768273952250  0.3079787823957817  0.6519008790533858
  0.8651600048495911  0.8288163156641210  0.6845819756815051
  0.3855890590953580  0.2442659848482560  0.2347649947996473
  0.7695128564617728  0.9545432782458955  0.0426735562065504
  0.7401180372069542  0.4969901227346893  0.9163854251040642
  0.9627456382630856  0.3353258422039025  0.6708798422480158
  0.2116488737195624  0.7979692713839190  0.2518309666090883
  0.3466705308427749  0.3653475182345271  0.6279787194525953
  0.3035551981521581  0.2136874338540610  0.7987484196074269
  0.4517854847157628  0.8521623078166481  0.5898690230341387
  0.4887197548467476  0.7857841678471756  0.5283624216705384
  0.1065424394525080  0.9686009446115841  0.5767681596255209
  0.6850128163435291  0.0823586208725466  0.1166848673729793
  0.9901176516710988  0.6693756243488265  0.1522177507828390
  0.6780036853313461  0.8351273417861780  0.7651511161772857
  0.6234249481814731  0.1338657002302835  0.9901626426392631
  0.2259682549306903  0.7162982990982597  0.6378144601815525
  0.4593981576477329  0.6314492810233111  0.3012528561202888
  0.8103059587289642  0.4725825225055431  0.2433931488926144
  0.3076956335253602  0.4903144761007709  0.5827193324906211
  0.8938642425384304  0.5789612831026369  0.4852418189286011
  0.0683705964659609  0.6638888119067996  0.8494819187464080
  0.6214294423178337  0.6688118219679725  0.0069203880267445
  0.8310724935361893  0.0976450565009996  0.6338003570633285
  0.8640862551706362  0.1340089320314573  0.3391544693109855
  0.0036878871742567  0.9909851430870619  0.5385608089698730
  0.6044382754418017  0.3893800695817076  0.1481724835978836
  0.5742995782009351  0.9809314494229248  0.6790156841616120
  0.1179744470689145  0.7157449995758680  0.3646096365612890
  0.8379459812486583  0.5405386983368720  0.8366098835732220
  0.2384251478632773  0.0908639064191775  0.1778479749852240
  0.3103676798995169  0.2151523591444645  0.2577270925777094
  0.9858161724681430  0.5385906788013861  0.3369019413684538
  0.9483962754879077  0.5487953976111413  0.8142502662558473
  0.2784902009204717  0.0765687246133184  0.6774381697182610
  0.4648019900590725  0.3878013260804514  0.5834360967143980
  0.6635469848324518  0.5223081196739422  0.3733678287050390
  0.0247968856985135  0.9286508270906109  0.1681370953661765
  0.4652208008512975  0.2901012599271515  0.5636981716412476
  0.7399101402000889  0.4384312864019681  0.7817361725261126
  0.2153969044234107  0.0642244161781568  0.1281976110582917
  0.5892974738640644  0.4165578918407070  0.0178326502162863
  0.4021668155851119  0.4473327941462945  0.5662686903836031
  0.9609506923030595  0.4897728340063885  0.7270766899962889
  0.7882268645673953  0.0838545798750551  0.5342974678061559
  0.8173051827895481  0.5438382718820557  0.5656420198286917
  0.0111766882948203  0.6587531375838567  0.8665200877762674
  0.8800541009860037  0.5559150693464299  0.9947628946457074
  0.6179229773586161  0.5942868902962943  0.3268364412995912
  0.9799543856325083  0.2288589618794271  0.3121753633687417
  0.6880456098349372  0.7427757073280388  0.7627190712922439
  0.2885838203444370  0.4130877772001386  0.7812659275227659
  0.7603495966278281  0.1741283615899100  0.4559216370083862
  0.5049858148029193  0.7946833664524077  0.8549644108636772
  0.3062865000150147  0.6296271468126557  0.9382461194003056
  0.7001849775199372  0.3946373089047236  0.5468680858391484
  0.1835008219769830  0.3406921324828666  0.3478677449749291
  0.4505671158899686  0.8098445778402061  0.6733501741490120
  0.2006401648189436  0.1695677932561304  0.6735603802949718
  0.5305765881087579  0.9200700662153498  0.5987659125002760
  0.8928816666095304  0.8981018852186762  0.7129095257445051
  0.5191999067201726  0.3290777215000819  0.2245382833022258
  0.5399554544946092  0.3987496994111808  0.0097778481444305
  0.6645628570573278  0.4786500834298433  0.4171856424768076
  0.6739773661224285  0.9648014424524353  0.9908912132677652
  0.6255241045951135  0.9683248907572513  0.7103763256694515
  0.2237578129103653  0.4608539581142951  0.6009631700812549
  0.4279324130669134  0.3601652886879042  0.3699583848319706
  0.2730736496220227  0.2956424116262575  0.5060302160688663
  0.1092820002120454  0.7990541198281991  0.0719386446750623
  0.6920098802417342  0.9712640523827942  0.8008402761619945
  0.3143578536327694  0.1918495329953334  0.3492419062012461
  0.5002358039529412  0.4278142000429452  0.7620497189082628
  0.7380875590592865  0.0722189257437052  0.6252587770643167
  0.2789267026976952  0.3223147745107187  0.7523820239147009
  0.4805575068102801  0.4232577099467602  0.8125283188865513
  0.7443361639374334  0.1696090970505793  0.6060672613404534
  0.2169575286316107  0.4298494082013389  0.3234346697273851
  0.0731707519473646  0.9634544694767475  0.4721857975114318
  0.8044963882322088  0.3839267396565514  0.3168194331517137
  0.6069384771743109  0.9761963734887030  0.6276732426968968
  0.4176943234728245  0.3089872057848689  0.5965942416702317
  0.7852243133492898  0.0843078042886244  0.5937375014126917
  0.9294920241162395  0.9929685445925445  0.6012700248715743
  0.6684567359659206  0.0535602298993369  0.0310294662686697
  0.8880075953994899  0.1216446188166804  0.9044233397108377
  0.6934755876598955  0.7746436145530952  0.8211566033341446
  0.6938037088763919  0.1086155528740218  0.8702161256063097
  0.5773099879407978  0.3364934844579752  0.4272015705434957
  0.5763487529264327  0.7497597357636133  0.2195203378289247
  0.9872059762496165  0.9907357560648532  0.5903397149676326
  0.8783769956081562  0.6032858660569171  0.6516575255881658
  0.3503335330860941  0.0064873633427896  0.2015923867420043
  0.2435834480249287  0.2718437164786663  0.8830184396765126
  0.1494118488295576  0.4863764628401294  0.9834718003803354
  0.5169376208027575  0.7857488603655367  0.0003931807594810
  0.0379638132972943  0.4896764088271026  0.1501079425340206
  0.6837357879358980  0.4121339165332044  0.8831868578536972
  0.5820867028670788  0.1773561842243582  0.9053629358572362
  0.9965125516841377  0.1696774028747626  0.2215607787944600
  0.3515593135034982  0.1650426627586161  0.9704495221892896
  0.2191739297205668  0.1683869665627117  0.3707498981228879
  0.6107590222945630  0.8261093342501148  0.0034654847235733
  0.5949300600224778  0.8415169531258068  0.9469782406187948
  0.3277158136086374  0.6167174577745574  0.7949521204476673
  0.7204428313311455  0.8274091560952597  0.2498739898485665
  0.1029935533734732  0.8315993496915308  0.2064415974625997
  0.7614945571769238  0.2138009354893928  0.3905247694215508
  0.3294814483998346  0.2218778198677206  0.9858747948058009
  0.3355987303030250  0.6988851556747926  0.8756078909036716
  0.0823579318552361  0.6784395912017065  0.1764544654079456
  0.3193034336663823  0.9006703927753686  0.6356177985074367
  0.1355047234351606  0.1830030535253968  0.3591016321814431
  0.6314610501838572  0.8539594884274109  0.6221950336602061
  0.3715904247532957  0.4025356074450151  0.5897140500055528
  0.6200271989805930  0.8106391451537970  0.0816333835980600
  0.0735283426204505  0.6174472574609646  0.8140367081337824
  0.3080078700995370  0.6843293111715494  0.9178212626907124
  0.5966078730397251  0.0261105833280761  0.6008080853201322
  0.3200753937633541  0.3722697213330548  0.8055439180091871
  0.9437768799734862  0.2964960109634745  0.0166885404639033
  0.1760339413834891  0.9502768830595050  0.8734749912639079
  0.4599748837586804  0.8818958256347832  0.1647952496778913
  0.2394661412868509  0.7942556543014149  0.1229575692349029
  0.8905012421565052  0.2850268336564818  0.8671472797496839
  0.8228135223670043  0.8820035358002892  0.0527988750823193
  0.0333074110355696  0.2513318387449706  0.6795741978690558
  0.4082501307971054  0.0982402836578375  0.1008705699963533
  0.5162767228473966  0.4552797335842868  0.8466897971393360
  0.1618218606518988  0.0842526642816978  0.0540369740119093
  0.2698726800405931  0.3635694811317416  0.3786299842596758
  0.7592558095806013  0.0386671765999349  0.6627386371726517
  0.1252599205778170  0.1209519608877250  0.2585703752773590
  0.4900752567394137  0.6580496695319629  0.3213881020944135
  0.2355187052489366  0.6855833971649509  0.9713261011849149
  0.0931003076322265  0.6920302900517955  0.9356218200635550
  0.5668584147130020  0.5761352320485469  0.4322001490437459
  0.4243179399887583  0.1145014366934333  0.4883729370524212
  0.4622205960164655  0.1548120964886739  0.6116905364541309
  0.4347495503366401  0.8833913283960997  0.8658306980240142
  0.8555689583762959  0.3616483146492744  0.7341971066151565
  0.8797238940954862  0.4532426259727670  0.7205103177833920
  0.4209103210804580  0.3455966694312832  0.4275354646077285
  0.4349683971321149  0.0999326870821861  0.0178991787948056
  0.3540154553723167  0.5223662950814527  0.8613502232970539
  0.4859070744528984  0.5342494228153182  0.3903614909410603
  0.0078010470057852  0.3613683501561525  0.1009202816641988
  0.3236772410648472  0.8122303654549995  0.1825159555310779
  0.6831543318142246  0.1351943211367968  0.9785049166763667
  0.8783408687545805  0.0644095104364636  0.5607830325111236
  0.2146611270462830  0.7917932181663548  0.6103804352155975
  0.5195864640534321  0.7493616699790601  0.4582123402343356
  0.5036859557135955  0.3721858101978940  0.8258854967346615
  0.7385113233273111  0.7119108603303013  0.4373661401283493
  0.7983650280293776  0.9380715931777742  0.7736095671688945
  0.5681599497903783  0.9263327493931377  0.7385896850798092
  0.6691524572285943  0.6201756915220425  0.7744637996571536
  0.5157946341951457  0.2968436853739165  0.4585726776656187
  0.7029015679321110  0.3517197986705679  0.3018876086620310
  0.4357630761782426  0.4194280400026666  0.3787447708191811
  0.6528897120043484  0.8149592464462249  0.8135746568498033
  0.7689685700306855  0.3632088829912061  0.8634971267481004
  0.8761318420130554  0.1959330406410195  0.4780738414932221
  0.9013134507690154  0.5582238732433460  0.7146214916738439
  0.7293634825834492  0.8913329046723241  0.7270215686114518
  0.0428009266430164  0.7489437902913086  0.8807417030176672
  0.9591918731966093  0.2978806191819853  0.3655337391292470
  0.3446485443679064  0.5883254380378055  0.5525686426241346
  0.5588910654649485  0.4207912514403741  0.6027983025103615
  0.4444740054589127  0.8026042349651390  0.4385523672277150
  0.6898742990210867  0.6748617663956322  0.5126709276629354
  0.5786644469964535  0.5718072349901830  0.8119678684818025
  0.2859111408192382  0.4493704976646774  0.9172928422798553
  0.5209242749610998  0.0184052166179980  0.9645713479149195
  0.4277998610340518  0.9642326493516028  0.9378730817040026
  0.2145922066931471  0.1600304715109619  0.7575728196224809
  0.6115596604093217  0.6153361456658832  0.4065654648509324
  0.1698036606413827  0.7933618684951173  0.4706398661318252
  0.1259634631180687  0.9004360524014533  0.0534492003463825
  0.0981200315150721  0.0542612584575099  0.9848881220172170
  0.4613583560297335  0.3956827157635022  0.4776411013780720
  0.5813058041671604  0.2552303731759315  0.6464485547210611
  0.5890672303498327  0.1996504566297758  0.2870780940560004
  0.5213144449797169  0.3701344380658387  0.3302068905173054
  0.5088529523910303  0.2983954827117068  0.6023505529910971
  0.3978315931560328  0.7051639283378840  0.3209350639017390
  0.7611942946062775  0.2961736998388934  0.1003688443507542
  0.3023382446051637  0.2299477582066754  0.2023768236389224
  0.1563945457857351  0.4813071948882435  0.6661526620797303
  0.6904166487548689  0.5318752553843554  0.5053709196132000
  0.7422225567823628  0.0073886340651744  0.0522209431910785
  0.3627708169584670  0.9196476427377672  0.5354796352900167
  0.3123575432700462  0.5290347908330140  0.7743388826809755
  0.5701269638571255  0.1070036527424607  0.2983110315359514
  0.0194573029874940  0.4891078391913438  0.5514799952736021
  0.3797530079873735  0.1569096327805303  0.9150711525174892
  0.1518459514554860  0.8772254800835663  0.1055503290137983
  0.8837464888865094  0.8281909114112938  0.9735300627181037
  0.0701749139925137  0.8335900510560864  0.3720994037027440
  0.1811241964302099  0.4056214738914183  0.4508913264676759
  0.4609954115059243  0.4338136413639570  0.6738726354912381
  0.9420842810171982  0.8830931514994742  0.7964083678443767
  0.5946318458816734  0.9157904121012552  0.0003505910224630
  0.8362731217072107  0.4607024115501721  0.1371554878674498
  0.1916699601865550  0.0642159757161036  0.6923358412958520
  0.6135201567447538  0.0641694065258565  0.0534811418853493
  0.3497938649331958  0.4319761625515768  0.2904005169049663
  0.6472445373134519  0.9513119732807161  0.7670131761477688
  0.0709380751522100  0.6288249071982025  0.3361387336535338
  0.7178814746568103  0.8236036203791220  0.6503764748092088
  0.9636155877948590  0.5669612831352453  0.5385061717593622
  0.6070252188670714  0.3403401377476670  0.9958169793981799
  0.9053300864914076  0.8643235005905093  0.3412344077282909
  0.1695612010364574  0.8833014209481289  0.2790058279558616
  0.7793303475430474  0.8408146768876391  0.1220243977093721
  0.9579267629262402  0.0726011115414612  0.5029350758219060
  0.4507153477221655  0.4792876665291853  0.4859547842461257
  0.0024369199443864  0.7510449578906121  0.6696818459881040
  0.7817632862883838  0.5178648518817468  0.2657017789290150
  0.9709156703329522  0.6136379228385747  0.2887833560331293
  0.7446335214621221  0.4626299840314176  0.1859671501287427
  0.5813475921359356  0.2204463212279194  0.5842331593879780
  0.3335142480958885  0.9657776123825569  0.9526203612870179
  0.7312016317910502  0.8687833420423349  0.1756492462591768
  0.6479563480614291  0.1699569949260951  0.6541043936564273
  0.4969950389663100  0.9970468566752679  0.5633148545515562
  0.5157704999671900  0.8966421368691460  0.5500493718720061
  0.1364198315339036  0.6290259512761421  0.2008884158936947
  0.9460288864975129  0.8408257011646065  0.2759968148727093
  0.6702490748334206  0.5954349048680635  0.2651404719081503
  0.2572006647304258  0.4962671387330289  0.2810377772485977
  0.0724173860067306  0.6735536763427619  0.4703663448816606
  0.3325536089883865  0.3899299053954576  0.2518737601706950
  0.0853976434528830  0.8320243057732816  0.3152593862282873
  0.6910333378698232  0.3199037725867803  0.9358256202107365
  0.8147648318321371  0.3323436263075003  0.8941641326672873
  0.0029374547946548  0.3966530011133507  0.7641754676656692
  0.2763989588948568  0.1348314045461219  0.9123661822891459
  0.1906818721191713  0.5106970234230835  0.0250262213858834
  0.4173296657167840  0.4782727254087829  0.6685638502245637
  0.3682725643162503  0.9305965374870020  0.3424807096882932
  0.6478642804510796  0.0315945233128018  0.9243100180346902
  0.3812710434769511  0.6956056567420594  0.7107650059209109
  0.0109573829303922  0.3729837294875898  0.3490807878831344
  0.9928179291328950  0.5775487976161866  0.7356952164689990
  0.7938900654409008  0.6124535207039772  0.2174215724791632
  0.0024130244574371  0.1590392921767259  0.5955050729011939
  0.5855826277236552  0.3944700452970862  0.0705130259600119
  0.8546257123003607  0.8339669621469994  0.3351328428686149
  0.5639627542884657  0.7107120446984525  0.8759908355515734
  0.8974373745779577  0.2260953879355156  0.3922866797948534
  0.1218860728287742  0.5660783726291994  0.5616973771041982
  0.2898867707006131  0.4840648656297925  0.6348692649990206
  0.9506610195211331  0.9078941247466268  0.5852178582350779
  0.6296728826643990  0.1482767021216136  0.8867123918325341
  0.4143034272008700  0.1498060412195007  0.5721486151343835
  0.6455841173277714  0.3988598676924971  0.0734928256403050
  0.2116101025292818  0.1183664048081209  0.2730378207218787
  0.5599304387667380  0.3825831931453264  0.4637403819824534
  0.3193000444460984  0.2630886714680371  0.2937074647975810
  0.3195125969753316  0.7306691145205092  0.2978036168420186
  0.9866251160348064  0.8821745610699999  0.2696188795831794
  0.0709469997885895  0.3699568950648127  0.2799103587077845
  0.0313424174655300  0.5188159564794391  0.5422110737039934
  0.3737492090974254  0.0008588682246570  0.8973123831134218
  0.3463527635080249  0.2955324668100149  0.6118866270562711
  0.8718130070227117  0.0311402304568491  0.9424328120437560
  0.8232778827900779  0.2397637036545238  0.9062133694392429
  0.5085103804331037  0.0687184291641634  0.0268155015751876
  0.1726088735773536  0.6679789676384272  0.0295170662889186
  0.7778403569202146  0.4691631716808755  0.3852236192115597
  0.0334125839413850  0.0413721188951439  0.3271358844983008
  0.8425531606723862  0.0052728812962323  0.9123330349698858
  0.8677585312145124  0.1658238780340555  0.5515422302966175
  0.9956999581879379  0.0163156168278985  0.6180748963645286
  0.5766467063579845  0.3028377635331603  0.8965088027085265
  0.4849251689192194  0.1135713191905759  0.5446249434297105
  0.7997560236245774  0.2580731282442779  0.4932179950470644
  0.1013504239978675  0.1638097873251231  0.9138133421061931
  0.3288314257447253  0.4372575361025486  0.4645564019431160
  0.9429390349239625  0.5944096471100937  0.3636114180772326
  0.2472632660150410  0.2860710673236236  0.2375253098779013
  0.8163117315603963  0.4954482137264087  0.7198049130341931
  0.6745743903109005  0.5934550415595806  0.9420588804871586
  0.1560565548618185  0.5028599543129760  0.8422172181783116
  0.0828853001180381  0.3075460795248106  0.7786808090622644
  0.2255075816813323  0.2633650046537119  0.1912852650622427
  0.9630279491394809  0.8300558764277345  0.4349775964443141
  0.9809529020699963  0.0938511316576476  0.2109818677188548
  0.5503950723409641  0.5585830933492607  0.9021457091916975
  0.3059810791255846  0.9153107815648147  0.1464616349939131
  0.2746033797837887  0.1765979486073272  0.5272860648990574
  0.7082154928954798  0.1878491543570503  0.5494097775870012
  0.2121371449055180  0.5200790928083241  0.7341528605305710
  0.2005712444658078  0.5347923312117846  0.8541643314116028
  0.8526825345081376  0.9154673560930952  0.4892991252944002
  0.7786985372914418  0.0967485984248628  0.4295175625669481
  0.4263674499118664  0.7561392911749272  0.7295885119126286
  0.0498109654820611  0.5473144200796130  0.3564867928661444
  0.5135175623386899  0.5366856390484017  0.7016893443958424
  0.4075144837746039  0.3504800516860597  0.2556869681876952
  0.2141014587692918  0.0407563701957078  0.5724095850962440
  0.2323738254009966  0.3971106575842143  0.5674328316848550
  0.8633020417387920  0.2255803754290783  0.3140007564450545
  0.6163380885678341  0.7583002729256146  0.9649095995480885
  0.5681244188436657  0.1546641346767742  0.4062019244202603
  0.5694369037096515  0.1937824127720786  0.9843623831872438
  0.3603965005507884  0.4118006556200137  0.9241781736412285
  0.6855571027746163  0.9828829699112311  0.0145015599485518
  0.9573431466421881  0.0144075917211955  0.0798614266074871
  0.8395656561025739  0.8005727139804608  0.4110776716183532
  0.3623667548611038  0.7897396486277418  0.9242429040242330
  0.8362083913242059  0.6470803649726667  0.6626521561891439
  0.2402123284119935  0.4366505304741198  0.6108064713785377
  0.7766262711749988  0.7825233654922725  0.0363154045593233
  0.9158243043040942  0.3387746904182938  0.9549306921952707
  0.4361151081576211  0.9803518555101984  0.2719944995371210
  0.6828046834622985  0.2460772437586596  0.3435181462927777
  0.8325246440732149  0.6892681872529524  0.2071385105389994
  0.7683894975364646  0.7997316659315479  0.1835651799181982
  0.9143552449098280  0.9284840476572995  0.4248112018946924
  0.2013065562906988  0.3342005465812892  0.4935644403996012
  0.0900711082040865  0.2100130535140745  0.7112340591105313
  0.0987822050835618  0.1937294329275307  0.9534874802611916
  0.4539412522813981  0.1210201363572820  0.3626889914973271
  0.2374053836217017  0.0373187743788800  0.4888207610600436
  0.6011778082845091  0.5220113953002955  0.4664841234010773
  0.6318135290933831  0.9683811294674567  0.8532957226702714
  0.2367453236603670  0.9953761572961990  0.2759321962222415
  0.3917562854425123  0.4503831296459852  0.9641393899275271
  0.5691068457958499  0.6619602338327226  0.6424071143754922
  0.6596439438558388  0.8320861311103286  0.4412540227241322
  0.5129036292929774  0.8508441618354629  0.1087523228101489
  0.9693139471732876  0.0777281964256352  0.4318456589485571
  0.7774927942423094  0.0349376422864547  0.1518654115389843
  0.9857246262762988  0.9427507283552218  0.2391591933860842
  0.4662765615918225  0.6312102478828485  0.2430394409251835
  0.4363751470150079  0.4529023631539349  0.6681250393082455
  0.4003411804216359  0.8496132417213644  0.3448683222678549
  0.0327897704867555  0.9322458587073571  0.5739921275037525
  0.5127438890094866  0.6460799863262315  0.4472188269587259
  0.4136407415249199  0.3301769089532555  0.6741466036715500
  0.8378263529458901  0.9687653404174428  0.8261036731349153
  0.1001173157882561  0.2671291248428639  0.0098814218783125
  0.6362332958086648  0.9215882879258221  0.4204023849680200
  0.4243332101021253  0.0989678766266423  0.6364484926746031
  0.1068435400171805  0.4152757609805605  0.3575415480138378
  0.0113658957071392  0.6081674233469253  0.6848559438618170
  0.3183048054963574  0.8399126228736160  0.1973515410623694
  0.0530529828042094  0.8472107687144044  0.4984576178734400
  0.4094705108085627  0.8461994402793594  0.9739174766674790
  0.1305776072032592  0.1873765071041617  0.6226287048798298
  0.6673721109867141  0.7897419577668363  0.4814636204398083
  0.1750337862021276  0.4802957919648408  0.9650145536443526
  0.8831667459970675  0.2032402368172912  0.2540002910558593
  0.9959345965152852  0.9087197537054569  0.0932094982538455
  0.5811820790047085  0.2848377263378938  0.6394946940704311
  0.2967962362899420  0.8777083881077541  0.6346993570546782
  0.5757407044609933  0.4951460517026362  0.1602473071207738
  0.7006003990918783  0.0731201045195232  0.9590360435519075
  0.4630786646551557  0.9835257299514463  0.7778206919937324
  0.7576979600637327  0.5914758114021397  0.1456387341711906
  0.2067392529407199  0.9174920241488477  0.0799912784373752
  0.4475868366908714  0.2311573746504179  0.5936103125415980
  0.9657761226153991  0.5606842609485642  0.4144111001221971
  0.7288956956959128  0.5279564228758701  0.7203305028874505
  0.1883232355108282  0.6321566969581729  0.7160179994075273
  0.3318555040982605  0.5747424487327579  0.1708741514546799
  0.7653949910610108  0.5514346318636484  0.7040130832085151
  0.4258423069887564  0.1808869510103368  0.0238199708848129
  0.8108466697188728  0.0581458449434562  0.4195440183758982
  0.3464987979336642  0.8862524262225761  0.6321169946634185
  0.6011651825078470  0.7410787135586352  0.2403499456531915
  0.6233170890392513  0.3476317286129611  0.7168831816843959
  0.5515077421869153  0.9269338704412935  0.2949702473067661
  0.2171706025793492  0.2094921005610956  0.4360515695883426
  0.9378090962045769  0.2261468593908162  0.5976200208467066
  0.3814194242858639  0.7319366829066886  0.1669226185570818
  0.2020008622745724  0.5737123119873464  0.8142963000610220
  0.4743997404845776  0.0559746303546039  0.3275857941799441
  0.3295079662552427  0.4169796076788895  0.1114747326252826
  0.4209823513225356  0.7392135995654787  0.6793579581661071
  0.5860977147184504  0.6710507930293687  0.1692372511680026
  0.9442340895142025  0.4964186480529730  0.7017175009951242
  0.5819284895949247  0.7374332533235987  0.8741159635835336
  0.0307399486436487  0.1054289036793962  0.9938506357266537
  0.1910069206909049  0.7229110030697630  0.3902814904446886
  0.7076656198375509  0.2727665341224507  0.4629668576299659
  0.5616133169923216  0.5026651300129200  0.7164297710499320
  0.5810684097705715  0.2559343254021516  0.6856811258904998
  0.4006612568954805  0.0540192085385530  0.9828518337776340
  0.9915944578545856  0.7790566773161670  0.6047084447158613
  0.6672671568904500  0.4661916448638302  0.1102565965756066
  0.1935338451218064  0.8665571084901376  0.6157680291649177
  0.7694182562472551  0.6296424914143807  0.4110065724807491
  0.9364982500824647  0.2802488896722958  0.2842480578747633
  0.2343668359046467  0.3829166030352328  0.4395829509032738
  0.2164464267639625  0.8699966829039718  0.9856499144533372
  0.4834189770785460  0.1119163368550213  0.6979909974267055
  0.6973360957841547  0.9043717192788213  0.0236681333505419
  0.0920161668273463  0.0002531663607187  0.6951540338281847
  0.3885542171578038  0.7174332782073984  0.6453573747663605
  0.6418171665810196  0.5184015777445085  0.7084078963239044
  0.5804250538234932  0.8110628349334636  0.5761162002731065
  0.8477083509450958  0.1268778728884566  0.3646060611201104
  0.5477092456205981  0.5812094907204113  0.2969120284422788
  0.5784416895621896  0.2686226350406070  0.0935727221089966
  0.7603176411222942  0.3475677431135353  0.5127768128636732
  0.8623249034600177  0.2732184363676675  0.8639351927808394
  0.5468574712481493  0.4460688012012939  0.6158544729042466
  0.1663604735421909  0.4454527452373815  0.7989167632962538
  0.0798169011915595  0.0813830002940643  0.9944527251234622
  0.4679249144635250  0.4271366911837753  0.2912920494384378
  0.7221784100699349  0.2227359071285004  0.3102993368311547
  0.4542491871529070  0.7102239224892127  0.7326820134157155
  0.8219007420294453  0.6076226899856907  0.4076321753800669
  0.0051806367760328  0.9615161334277870  0.2828762802758987
  0.8374979337759622  0.7176767061609763  0.0957160594299094
  0.9691211713030735  0.1930491493770295  0.2219800178947429
  0.3850402288744395  0.1927428904935732  0.3702170456547364
  0.3460283294652439  0.2932614657547269  0.1977921396992766
  0.2106173216953511  0.0073731963530021  0.9933586401228037
  0.4169619911822490  0.3237360868675787  0.9329860495196897
  0.8868854282879081  0.6576330561462955  0.5495208024844331
  0.0029324166465422  0.8954063750117848  0.8671600172588827
  0.2093710011132593  0.5861951082463889  0.6053022286607651
  0.1797904078938682  0.6811988634429500  0.8571952626940638
  0.6734462641306874  0.6183383616863782  0.3701554065385841
  0.7195042035333994  0.3560594904011201  0.2056952241165624
  0.4843513850984085  0.4480099305636751  0.5400274474925080
  0.9015871209958959  0.7354987161808906  0.0884034814697804
  0.7486293749326636  0.9410933623922147  0.2111842898314152
  0.2640891059807408  0.2325545341572328  0.0859259335091139
  0.3429678263047015  0.6155310444542971  0.3107375332185200
  0.3186947892940798  0.2168241386047228  0.5269929159665894
  0.0809012933946477  0.0266314617926971  0.6503381133048965
  0.4940669388619134  0.0954808345067440  0.9853865981082032
  0.3431900623204602  0.4390288320089453  0.1515277465016334
  0.0575043139611462  0.3324050792027580  0.3111218372789535
  0.8488086929678166  0.7896755141516003  0.1779208804655068
  0.5676865017876425  0.9727408585662808  0.3254099520018579
  0.1138752689349377  0.0392301782309415  0.0080146138569544
  0.6597608905777228  0.3764695611716725  0.9464312726068235
  0.8265627448845788  0.4740484161445991  0.2179104954382503
  0.1319688448856220  0.9269016169823279  0.8260492966336571
  0.3326450062035150  0.1752241784448892  0.0572254761044374
  0.5878753048910885  0.9511066833663769  0.4539246413775891
  0.9911175088990288  0.2124095488303142  0.5560374909626188
  0.8508299345591063  0.6300012273459691  0.7122320541295143
  0.2496004685984019  0.3898816741837250  0.0645540364728557
  0.3565365510892135  0.8125168476794365  0.5502927253372260
  0.5712892057052512  0.0854784726322362  0.1729657845441737
  0.4150620166376010  0.5934038308135327  0.7770390111660560
  0.2722247244292632  0.1045839822358731  0.3849585896341943
  0.2054264514992132  0.0264443237600707  0.2049930037446632
  0.5697363096641821  0.5667415424794758  0.8404930361582790
  0.1877732134761835  0.1251228154440795  0.5308231073291880
  0.4463410933935532  0.7927480844261205  0.3159268019149634
  0.3455106353779226  0.8566879969768466  0.3196531192624873
  0.6833845753284563  0.1388222114304165  0.1705473524065360
  0.5675480651745076  0.2729592355043068  0.0050365989875490
  0.1220543234071536  0.5537845533341186  0.4155784444228381
  0.4077405559407938  0.2117221143974558  0.1628055725282566
  0.6411287451774191  0.4562620860481131  0.5331445370027662
  0.3658649888567748  0.6333128307609518  0.3485012684587661
  0.0771184719721434  0.5925046818454671  0.4461699563913056
  0.3322957302933784  0.9677067863634971  0.8533214956421005
  0.1030427343117687  0.6474876673135981  0.6484878969833175
  0.9191662989690953  0.3075694130029190  0.2434021061176505
  0.1505185223626990  0.8750285204560190  0.7934957985626000
  0.7490904578679900  0.0533541578572398  0.9847778792475428
  0.3880128357726741  0.1957133186073396  0.3067499107115252
  0.3318789679309953  0.3301599256076571  0.1634512562365189
  0.8696783941507166  0.4477173030497121  0.6902386960678744
  0.5148926919136595  0.0675049207037213  0.5437520143636215
  0.8445069902997874  0.3036905248763511  0.2064721749335127
  0.2581185475205001  0.9803736061107017  0.7955708952366425
  0.6874872451042091  0.6941053867258381  0.2573074437914581
  0.2656525421244511  0.3429697630020067  0.4008010342990572
  0.6668122564888282  0.4921135189204807  0.8948994072479993
  0.8845523784304993  0.7186428946511410  0.8399536659588123
  0.0124589169209364  0.6551508061080373  0.7598245281930759
  0.5506749251015491  0.8072765917020190  0.4927786254680623
  0.3897357142464436  0.3372914037476709  0.0914573644775156
  0.1421354722113622  0.8682545491896885  0.1329621098938789
  0.6346625598058816  0.6409335111913949  0.5584357926215373
  0.3546351240215866  0.1983013793579776  0.6565125277785870
  0.7925700572507683  0.8350644736121206  0.8820278934933186
  0.6457428520184306  0.2602370522851020  0.9858763590613165
  0.3877289978849421  0.5912771509516526  0.3000432582986358
  0.8857458309005802  0.9472601790534007  0.0877058328208466
  0.9226660599761030  0.1018866191310792  0.4392091683233920
  0.8129768132893946  0.5626530627359007  0.1426153169018317
  0.9162784598221373  0.8893670079309451  0.5741283294661507
  0.5819101282147053  0.3070571193215446  0.0617756812454258
  0.0096902847519720  0.1613190642361551  0.5646116968623855
  0.3998701160463526  0.9918413867609840  0.8252376714861099
  0.6894207394099069  0.5672145063078854  0.5762427559931582
  0.8626040113370238  0.1903959858015974  0.4496133297113922
  0.2830262253403272  0.4545227456472504  0.4868787750815468
  0.9268183389982091  0.6052144441309942  0.8508054278893613
  0.5235039557714755  0.4860807440593142  0.2821136126015734
  0.6106450551069945  0.5727223244668366  0.3444416157096936
  0.7786690399017181  0.2043297966502077  0.7681442818622976
  0.9087262341925931  0.0114149288325996  0.4061584977076116
  0.8415643277214235  0.5314577853825724  0.1826211703365947
  0.0776518598253672  0.2370261075254257  0.3396022188302500
  0.2957886508948810  0.6793152763370373  0.0885198881510698
  0.8649181411515289  0.8399866643013566  0.7495474439436326
  0.1119605363843831  0.3565574823177800  0.6977987429749966
  0.3769142566682636  0.6354495293069680  0.5067419523284857
  0.4483684802743687  0.8414700254603373  0.6936661288793728
  0.5104766496162720  0.6838604814470024  0.8569075141675424
  0.8576002558959004  0.5364816899245044  0.6353021913350654
  0.7874408634149617  0.5473336753201270  0.9310360187985409
  0.1810697081964149  0.2312236692889382  0.4638021700753214
  0.2622509567731396  0.0652206793428187  0.8877090460610750
  0.5979291847761206  0.3903457738975459  0.7005491511016515
  0.0882556407014623  0.5316815484096677  0.8638694195608244
  0.2951908445786512  0.9359050248002450  0.4616730693418101
  0.5633112791103776  0.5946422370075988  0.6718460307381805
  0.1222325088702663  0.9402984226368345  0.3860480563566636
  0.2911435755190776  0.9310798924413369  0.3724457745669230
  0.1690592798589189  0.2158902221956131  0.2630596768747292
  0.1682499638504662  0.6150745797971596  0.5119601597519685
  0.7664375301180106  0.5256182705659461  0.4540929478222370
  0.8045627573590870  0.6568231442309798  0.0197768685177587
  0.4263925524884747  0.6234276297623571  0.9957671466867530
  0.4926201887308346  0.3863291381751537  0.3279663552003936
  0.6178773904835887  0.5147698606115022  0.9095374868983510
  0.9006341169450772  0.0653977707581749  0.1318015812779846
  0.7069943307562648  0.3000737426591014  0.2067784338169690
  0.0589450770904598  0.1640319116083450  0.6834373875741988
  0.3631168898692144  0.5926118705924679  0.9588528766798612
  0.5284735210563283  0.4772272813058255  0.6540421958775908
  0.9460841568590657  0.5185236269189079  0.0030784766775545
  0.9600485638006785  0.9621820593473053  0.9632828483001735
  0.2502538990958845  0.2757656588760934  0.5671243381506620
  0.8259586443021075  0.7501825316829853  0.3578012889177931
  0.6117064397185400  0.0022850490940334  0.6107319085322920
  0.6111002162178688  0.7221483167733481  0.1474853936736804
  0.6808299226063311  0.7714258664690514  0.7553781691340281
  0.2705858688231914  0.8799350685900987  0.9124773934074727
  0.2187326979326175  0.7452317374643203  0.6957497172262147
  0.9079730824059882  0.9950761181906265  0.8528476007092173
  0.2184995307503388  0.8661108487380310  0.9301874474254813
  0.7708628834601341  0.5573340725641954  0.1037426269224839
  0.0751716349393390  0.9502163985129000  0.6924604603185984
  0.5868591719569600  0.3827755593295720  0.8011362928962411
  0.5954442159127995  0.8183921169078490  0.9255955381151204
  0.1282584680466861  0.2137824996208156  0.3227210712588185
  0.3517399850155555  0.6206721936715448  0.5535634718879072
  0.3223722422788292  0.8382861695791325  0.2571139602818442
  0.7721310477531765  0.5013323470694098  0.6954859539509335
  0.6414272200274762  0.3509507436195536  0.3415872218354272
  0.2085248692339205  0.6589837535398778  0.2159996269712610
  0.6882093352455749  0.0708926931201668  0.4526902203106699
  0.2834017025303509  0.3235950059177389  0.5139659077648175
  0.4182772693616556  0.6986552846023502  0.1491133181132322
  0.2876773156510301  0.5851913403796698  0.0035727072231112
  0.9214800563418110  0.6767994320493718  0.8373562569192593
  0.6675026890780918  0.9204510741659467  0.6163335075338240
  0.6174333653822186  0.4509509916423440  0.9033009491341818
  0.9697908961288442  0.4593443025649799  0.7276419076559427
  0.4612472566439435  0.1453378198274127  0.1330534884869180
  0.6194506963347192  0.6645415533869719  0.9012024631157624
  0.9045843835405912  0.8768277122524446  0.4280366222795987
  0.2862761896391576  0.1919802786855163  0.4741687148425882
  0.0202048600000934  0.7684115460903994  0.6539610035674930
  0.1575068245678075  0.5624809946291796  0.1234690528553853
  0.8724941285672392  0.9993397573077751  0.7567268553419474
  0.1081145907340911  0.2698229590617029  0.6581104520319996
  0.2752831605378742  0.3339087011950841  0.1229810610007719
  0.4555347444775162  0.6295302374590436  0.5865401755643048
  0.8004092865232546  0.1095461824843397  0.3540624575261440
  0.9456299268526649  0.4356688484055143  0.3537483773651094
  0.2422100130601011  0.4926961296117013  0.9003395899779882
  0.9125769843419689  0.3705383884306651  0.2744012183804808
  0.9681554297430564  0.4720379753652033  0.3852829491886174
  0.7499596625161845  0.7685733348037320  0.8698623059063419
  0.4644793064927019  0.1472505784364833  0.2239596204939732
  0.3665533730161963  0.6278156644371786  0.8855849360475421
  0.2355363776118456  0.0677626690441031  0.0206798769138672
  0.6146103311066230  0.7969116111902678  0.7113773002227498
  0.9877273947548322  0.4147581786257760  0.7408704441099805
  0.3277444543822454  0.8869564156929751  0.1029905272839340
  0.1026707673856105  0.8278862540275320  0.0592939014149267
  0.9690387126908916  0.3911941590497108  0.5345819016007511
  0.9164351088387757  0.9290523938279847  0.6393296278693515
  0.5098555656882022  0.6885883320105088  0.5700169445525249
  0.9165543646997543  0.4342279828547086  0.1693693562707169
  0.8682491860279203  0.9098260547968088  0.2234055388438236
  0.9225488153007875  0.5926285932288137  0.4763735329918927
  0.3048918544902786  0.7027411200092203  0.1804734661357007
  0.1194556480655165  0.6304080082683954  0.0539088307587301
  0.7267007472540284  0.1280809064235707  0.2172678843747509
  0.6745149486013059  0.9607747508017281  0.8234001181853720
  0.5142006950688803  0.6110328414981592  0.5834516275370176
  0.3877882533736420  0.0585189152284157  0.3902027562504011
  0.0873798159004605  0.4174210256877336  0.2432765559904304
  0.4563102055273088  0.0974849344646747  0.1639295087383386
  0.5609081357081964  0.1304078854798115  0.2806786688752199
  0.0128944829381639  0.1348940492551057  0.8925034892165332
  0.6277326844064914  0.0646719655099594  0.8703968343625459
  0.0387319977656257  0.7802265169767973  0.8766877486279732
  0.0354495868036515  0.1187032225404008  0.9340262794375950
  0.5519067763201212  0.0493686536129224  0.0666889845424613
  0.8634157854612867  0.1711682687358005  0.6220113081254754
  0.7622766104463895  0.5130754366904460  0.0858784285588708
  0.8286174317485602  0.9927123046414099  0.2554270596849346
  0.6868120081399548  0.1645215608289215  0.7137878924607198
  0.2328573665762263  0.8959786690654379  0.1698927300953272
  0.7964792062727284  0.7405966249063843  0.0622769320277433
  0.4129638285726130  0.6241566100768275  0.9203673492516806
  0.4146250306860513  0.7787937334128225  0.9497330435585650
  0.9210566645155758  0.5732745811522179  0.2889686085791967
  0.2697406680483262  0.0036429977546740  0.5439517176511190
  0.5166331123957115  0.0355739823613244  0.3903980274806044
  0.3262655625247379  0.0173037572699088  0.1810914774190076
  0.0700100386678511  0.3498734184994202  0.5744041226112309
  0.1268133659705256  0.0250272665506550  0.7964780144590020
  0.7749907303008530  0.2049974171798680  0.2585113991200012
  0.7425960414088129  0.1542365435693631  0.6343984240888109
  0.1271616735320097  0.7903618498811799  0.3971904346155123
  0.2768492782624685  0.3409349272854024  0.8528832061442878
  0.7889938711885676  0.3928511525709284  0.6044491134978743
  0.3635852726636139  0.2686840134475066  0.5093796223254772
  0.6662425695277011  0.0518162712202851  0.4917754907523852
  0.7945298459468004  0.2764282886857752  0.0421452940834538
  0.2124423795740533  0.6279392406229147  0.1613063825932247
  0.0151031535322279  0.2450052818002940  0.6554373628208324
  0.4142511363736327  0.5885690149680991  0.1714221064373933
  0.4291068710057328  0.7662593539659427  0.5936251357248177
  0.0945306330803910  0.9314086840530543  0.2857914566502017
  0.7338389665904311  0.3932037432129910  0.2358849458825822
  0.6449676516778907  0.8553591246721255  0.2570454496146767
  0.7432273302419132  0.1781838243688513  0.2076028895841624
  0.9980802336642477  0.9826444581892739  0.3302849915605509
  0.4906313868194051  0.1910318742907973  0.0064673393591446
  0.7079574652237559  0.9933681001442555  0.8995115029033478
  0.2297261180977798  0.7963704532702118  0.6811526806610595
  0.2481938490701353  0.7386273761889005  0.8086590211360615
  0.0473177097889249  0.2200319052488097  0.4090414578671280
  0.8459230884715951  0.4651121968254969  0.9504458226551948
  0.8149412202636158  0.2759828296835158  0.9890482968052593
  0.0486993338175978  0.0121585193401414  0.4225785250995377
  0.1519665294848171  0.9884455370132301  0.0807950543742100
  0.6117531811631146  0.2930825633411695  0.1399505610757032
  0.0755926896933454  0.7771315257065529  0.8287111381027832
  0.1835205427697338  0.9035302242997609  0.5519678567735893
  0.4061173056456995  0.5987019642450292  0.3534602563967988
  0.8227012684116672  0.6682159895932267  0.3502387838948606
  0.7705176299213234  0.8976781209506516  0.3690044124324995
  0.6721925505790752  0.3984416155629563  0.5616188663749843
  0.6422734822614414  0.0019203754801199  0.9306892010042146
  0.6110976463695217  0.9616414228457545  0.2134207096665537
  0.5348845105546709  0.3022587282831183  0.3762210307655793
  0.6406585001740726  0.4237568191887883  0.0898791330837198
  0.1834755518015695  0.1120692614537653  0.4747492771039669
  0.4670908310760746  0.8452237172793853  0.2486644665152714
  0.6403500438840585  0.3026345406707525  0.3231834577404080
  0.2405928335661746  0.5935675562241703  0.6609211212401856
  0.1549643506921968  0.0844793975320640  0.0839921412499847
  0.0108692794973390  0.1981969280581293  0.9435636942932109
  0.7836534283697907  0.1861261082844756  0.0577524439923157
  0.2672877664230758  0.8540526733631286  0.5418292836256386
  0.6198285385301058  0.0127053826028594  0.7743865552300240
  0.2331399567839637  0.8515230487292537  0.1954932241318701
  0.5974460905310383  0.8593566913748986  0.6759113073582735
  0.5024294488485626  0.0746446484293712  0.4887164401148216
  0.6845477110368767  0.2096367010858456  0.7659483650717605
  0.5138724993640260  0.7689763168199059  0.7766065317601587
  0.0526970541526089  0.7634226138324957  0.5612720858248369
  0.8542490991628792  0.4743682319091910  0.4290266470442875
  0.9094854940245450  0.4668613324454218  0.6650049454613928
  0.3191774738531937  0.1415936718292194  0.0924635159716871
  0.6869568879960468  0.0670938892893732  0.2473682573554841
  0.4038421704865489  0.3702311611985562  0.4374640550747931
  0.3668650695497784  0.8051073417436059  0.4576554280265864
  0.0578846608275668  0.9709299720976667  0.7421528356793795
  0.9516346568470866  0.9592676278565812  0.1884044464430155
  0.2947304879048142  0.9674326692064695  0.1830183795050322
  0.4138891974426551  0.0073226315606827  0.1898032446937039
  0.6456806542395942  0.3289405511890312  0.4761585223468491
  0.7743508008182376  0.4986144531109731  0.7469342433722074
  0.9028360672926030  0.8097531061367197  0.5552632217265524
  0.9297058057033778  0.2167609724772338  0.8377627398882539
  0.1712791819006957  0.9049574212368942  0.3470412593999833
  0.6530669942961219  0.4254147065703006  0.2045519581776085
  0.1682403734743881  0.1123214604114844  0.1235222654760515
  0.4216960987678181  0.1876657453978406  0.2410443819916914
  0.4697450002443382  0.7339177007847187  0.3235630131680260
  0.9618634726406187  0.9111769756554647  0.6588610712144364
  0.3247392588274348  0.1464789069818983  0.9828882585846413
  0.5175623919045427  0.7186799153650113  0.7554905720660812
  0.0058561379411815  0.0030686805855818  0.6638146215023433
  0.9602633882248274  0.6121611166550881  0.4157767696757149
  0.1836066699335418  0.5580873733275163  0.5640582483632780
  0.3869713023085058  0.2922170458666904  0.8483899939081284
  0.5380532080550456  0.8644707640740539  0.7464934957585844
  0.5611834819231292  0.5545724166954995  0.1518498807163646
  0.6694377476393050  0.2539955796672229  0.8619383833709372
  0.0645180725625629  0.6191645865520715  0.7189044977640435
  0.5659531949437686  0.8681060194040597  0.8435966680780385
  0.3243173940125363  0.3863492127876045  0.9602837235465309
  0.5372311172932152  0.5012222532764514  0.5510741082114706
  0.2194765945407550  0.4345779291600663  0.7625280831426192
  0.9703663186935286  0.2679177517099132  0.4910938105451735
  0.3422608572999869  0.0803915788726651  0.3816380103720861
  0.8076640056513943  0.7124728749905659  0.6324225459074749
  0.6788452547987645  0.1718815133846672  0.6599752680717244
  0.4095645896045751  0.7252407009510666  0.4314482263150460
  0.8013743576880510  0.3158921275843665  0.4766207970959017
  0.1847001962715159  0.5826087545233365  0.6599203701519609
  0.4841335811399441  0.5545802752172567  0.1490297235535924
  0.1437968977898741  0.4449308798020185  0.2407946783939615
  0.5032545563888875  0.3440576654689602  0.7507823864290570
  0.6536460667903429  0.1250877128054248  0.9846384370415766
  0.2713711250920462  0.0675486639918910  0.0629430208905445
  0.8154006644550689  0.9898192513093996  0.1589097755444482
  0.5695846141233433  0.4815425036108115  0.0712293246315519
  0.4057946220793289  0.2742163010320240  0.9417262154808308
  0.2627232688284177  0.8667943539100107  0.0206135752920634
  0.2264501573620465  0.3023304047054960  0.0098386539220789
  0.9506022482067595  0.3232301991849827  0.6426592574669430
  0.3476125106166261  0.5014437444086313  0.0487103301614311
  0.7832983423677388  0.0103280540722087  0.7856801076112061
  0.5722794166908348  0.6260327855911304  0.1080745811748606
  0.6576049740353718  0.4049324193367758  0.7512758718000647
  0.2603072575624114  0.1762141287212201  0.1629150704143519
  0.5532027620148348  0.5980743998298231  0.5205112742607900
  0.4388072291442286  0.2805114238896719  0.7884869779131400
  0.3927204255028350  0.4254080398622695  0.4603343645738477
  0.6898543361411725  0.3442330855517863  0.0056762887107625
  0.1231055589799368  0.8987536583501958  0.6771387265195512
  0.6454770030691286  0.9230133247005766  0.8394791751190660
  0.5146681840029852  0.1739818243678549  0.4174077667600295
  0.3088945795118352  0.4773853456012637  0.3412151524877768
  0.0707952018262585  0.7114786788778353  0.3032167975422732
  0.7332738979074933  0.6596339624158818  0.2079174352974337
  0.5360933821148346  0.3132675675383634  0.6019458949868707
  0.4289267581563597  0.9244952705807574  0.6257816108483322
  0.8083113839697985  0.8253666853219719  0.1140637710356179
  0.2504654646543758  0.7786075870064606  0.7886901076651005
  0.3143747252458310  0.6086779293077105  0.1020459031733778
  0.4102765865734472  0.4645774449042193  0.8038705370492343
  0.8992350021188678  0.6767131745309374  0.6043511240630728
  0.5327968625923242  0.3760078450853039  0.1296982348942129
  0.4998893958445833  0.7110829967207345  0.0237338879484675
  0.3632711552584004  0.8023518684086146  0.3459802099860483
  0.0178618124083995  0.8382150331973495  0.0172216932132475
  0.3780146731793423  0.1606558757637892  0.9850116237145953
  0.1993428197116986  0.2301359344207898  0.9402400237642503
  0.0082104385123791  0.4590285464158929  0.6352956363595713
  0.2969018235372481  0.5879997749371193  0.2126288611780259
  0.1168551384480664  0.4657884766267617  0.1631084421914291
  0.2488797937358360  0.3582149600133239  0.3550219793082777
  0.8113695035028884  0.6999933189750915  0.5218417853093846
  0.8310637039099587  0.3762463195630822  0.3323179650682079
  0.6366543784958056  0.6509067574290132  0.8540883532865570
  0.8038748573739918  0.3516792770038768  0.5346877868014889
  0.3886836779238131  0.6087244845313904  0.6672496521263463
  0.9348043103357349  0.0462010827489608  0.8085086291414857
  0.4508243241897556  0.2285844164143416  0.7215345327043514
  0.7267303191321099  0.7259496811414442  0.8414044757053960
  0.5125668301827870  0.0639897312955860  0.8512474418050683
  0.9842493843483278  0.6489535981968331  0.4874965070335117
  0.5949279371042780  0.8751323572269147  0.1965198413023714
  0.7154827260677447  0.8870803643205006  0.0992958674885124
  0.5149014815398902  0.8951654796623751  0.3159970071922729
  0.2801905094218011  0.6864082067518441  0.2603000694358752
  0.0966479739644009  0.2806319646748241  0.4857130322806003
  0.9055736634217012  0.7547619269492211  0.0169601704081059
  0.3802566610192329  0.3522351463746157  0.9744485786592201
  0.7908580168330716  0.9891653180155014  0.9066442101012671
  0.7394965808370950  0.2662305531595721  0.3287500844579117
  0.9217196853891365  0.7878842181211108  0.7708059743547077
  0.1322045167389347  0.7442397015139685  0.1604191517624213
  0.8102328856498761  0.3026151736977016  0.8951018666047388
  0.4360384596373544  0.2797082717928345  0.7226801636486682
  0.2146786318103866  0.6735749055247601  0.0006012402731739
  0.4519297686649918  0.8670803147159426  0.2920780319687820
  0.9291595080866275  0.7127253160354482  0.7398968812723850
  0.1601147923320911  0.2102640606580674  0.1940036431950057
  0.0575299239896926  0.1340101424672730  0.3753251220410819
  0.7355647128659794  0.0180237477706867  0.6635526459476513
  0.3037162233598225  0.1548009511681249  0.1826381909263721
  0.5994796227013794  0.6975790023192271  0.8585223472781954
  0.7186726155059383  0.2537279988635998  0.6024096222589022
  0.9733071190629451  0.9042254241439294  0.7170037038474588
  0.0018045629598727  0.0835485444566724  0.7374523968315759
  0.0372728965337046  0.8109145286129087  0.7401244432057328
  0.1918175030014416  0.4926814554051974  0.0488739950502780
  0.4357104501533948  0.8893876412060800  0.5271908315334977
  0.9331769631809566  0.9254328555414931  0.2558496135171435
  0.9604888644841542  0.3049936614534219  0.8902187078150360
  0.4854033096885021  0.3291701243080419  0.8710338587992037
  0.8569843861528830  0.4940640710601348  0.7981804458785312
  0.3586154466695085  0.2024111069056403  0.1508355634359596
  0.0021890865572828  0.5041290497104920  0.8607137947672591
  0.4097414994545591  0.7314233091441248  0.5647635041357612
  0.1224439533851760  0.2664611318714142  0.4267565770934731
  0.1223988786176091  0.9112822277051604  0.3357410775549489
  0.2917496686651224  0.6385175557916569  0.8430317483718163
  0.0001993229713285  0.2367297928377474  0.1938204577008698
  0.6468687435479071  0.6058679304947452  0.3205991958960222
  0.0815303661991009  0.7982766848369225  0.7799710963975998
  0.4042791564380985  0.8853920856889703  0.6923327872731785
  0.6643868410676386  0.8298724116022564  0.9505852648611611
  0.9111438283362046  0.6788151615021776  0.2768934126145171
  0.7759987812481507  0.4112399445060121  0.1425182213273247
  0.2454213737674561  0.6187168370328070  0.7169428468590642
  0.4870278635298595  0.0113739101888957  0.0458600378023708
  0.0214470208729494  0.9565663075577745  0.1814808466877775
  0.2520252508685496  0.0065764298870327  0.1034040494027489
  0.6855600078205740  0.3894675561580470  0.2409421467204902
  0.3569460880808816  0.7192244997495302  0.4152653326104561
  0.2313424037314116  0.3456149935673236  0.0393547274208526
  0.8519060678655136  0.4725491144770304  0.8834438426884107
  0.2905343538620015  0.6563082807012582  0.9242877460156816
  0.3592371265044413  0.9343440467723452  0.4689169876580557
  0.7776518268864002  0.9982470130975587  0.5967116353222630
  0.1675858070294478  0.4044666808790814  0.7505273382916486
  0.5599477945541259  0.0185713058701181  0.2224226835835816
  0.5877128830267139  0.3237064405011394  0.4574883506398436
  0.9211711531216495  0.6914947187585810  0.5175019073579377
  0.3055871846890731  0.4766421752546156  0.1602976612507060
  0.4629026486654665  0.5847974459431583  0.1965375136652803
  0.4448463727599946  0.5728853049938955  0.7339269373410968
  0.5181420975498057  0.2010308376339765  0.7535456810416264
  0.7800955664436303  0.9134777720539079  0.7684787345892143
  0.8882198872194706  0.6940451256443068  0.1268251258200271
  0.5429935739036064  0.3239605202898951  0.8435297775326551
  0.8626446819804306  0.3715153777327235  0.6346791707096906
  0.7457293941833697  0.0797720405780215  0.1589469824792132
  0.3905611569843790  0.0776772091446609  0.1181525021774009
  0.4313074433186377  0.0385645269872429  0.2922144946404328
  0.6617416105023215  0.6116374262549568  0.7421527611910218
  0.6130568391586907  0.4041005333558831  0.0048686620749891
  0.7803599256257747  0.3277249384324787  0.5756737021830731
  0.6267184509254891  0.9421264414277628  0.4932338238231155
  0.7893958103677310  0.1120915614059080  0.1440246738772507
  0.6021462686695893  0.6206472773158314  0.8626886301115845
  0.6711912035839874  0.5372442644883824  0.9138163216405086
  0.6293290444043882  0.4448415682609108  0.8205558547277785
  0.9914000432404978  0.1328116247888558  0.3862399011224040
  0.7814718133439682  0.7773200557403672  0.6689876889809460
  0.9335050099090952  0.2490569642950725  0.7312918371924527
  0.9148438885375731  0.6683274986649850  0.1603192070082251
  0.2260213465077750  0.1156664252997562  0.6360109480603693
  0.1442563419813270  0.9218278424847898  0.9341231887912073
  0.9599184326394482  0.2615769488667905  0.4346787863966466
  0.2178766404795902  0.9324169584654257  0.3376211637080409
  0.2718330460213988  0.1929768584256992  0.7112920855413261
  0.6627805741181426  0.4296752171764180  0.3768032690150105
  0.5668158818606480  0.7718832994748414  0.8066627331446642
  0.7676390273307434  0.4554713548849535  0.4962056485935923
  0.3328214691233515  0.1839779571534343  0.3736598230679598
  0.0044357671637203  0.4044570346367349  0.9224769340354254
  0.8932286333805725  0.4877353167089004  0.9564282061422502
  0.0509930351999522  0.0237550356588241  0.3712042398618255
  0.2518280801852202  0.1477130207843412  0.5650785154012693
  0.6414478533026113  0.8293801925333328  0.9996761467319970
  0.7212765795209855  0.3216954038148804  0.5292080879976403
  0.3007291843422470  0.1156877289701122  0.9009838397853613
  0.3971228364307289  0.1920342641228956  0.5087158193241587
  0.6954591381420938  0.2918001717717705  0.5778988184099021
  0.4716521629155225  0.4287797181378889  0.9788835409995110
  0.8805408079164434  0.3617642185341481  0.3348517238059457
  0.0667757029576100  0.3692605406510972  0.7332319609620023
  0.2632861214827086  0.0502708240150048  0.8306210940873883
  0.5768005248170232  0.2820350273840016  0.9444582249830875
  0.3093288838825009  0.0968637201819786  0.0914053809147545
  0.2543505166925589  0.1636268439181503  0.4454508830284343
  0.7959968941554038  0.8509728777178934  0.2349086083536553
  0.7140851754970506  0.3450590869524058  0.1473870597302235
  0.1145450682490662  0.0934014175079438  0.5431473551184660
  0.1521697523472250  0.5842349843527463  0.8198106731954672
  0.1491931416997538  0.5020098186844008  0.1446138767881444
  0.9418429387376412  0.0397263032831319  0.2868464725071478
  0.0318548508125755  0.2362850973411563  0.2321672691845733
  0.2601418189195422  0.0583734860206842  0.3747842993186364
  0.4520070503363006  0.5707895750447178  0.3361953448055286
  0.8680870993611564  0.9330235916520654  0.9301049888132994
  0.3834672209767406  0.0247160029806531  0.6128814190758646
  0.9842243562600774  0.2151743890763099  0.1142623663087919
  0.8553189754472239  0.3979449644367383  0.1864095551083287
  0.3196094690847650  0.4983200006322420  0.5051095772095502
  0.2563384619878727  0.6174250971744930  0.5852713036318625
  0.1537996414172160  0.1911589141851752  0.9456453459427479
  0.5662492116780153  0.2117247401120713  0.0985420080625074
  0.9286784622713872  0.4887111141972326  0.3388321209422254
  0.9899791033254272  0.9685018006072353  0.5619440080571653
  0.4530144308883772  0.7056828887272893  0.4146283454179773
  0.0426929976679591  0.1018537418321164  0.2591050899544576
  0.7181444930485127  0.2706003009425321  0.3837204813935597
  0.5410277888947642  0.4021884172088994  0.4493878906962442
  0.1778323138079780  0.9008172093287659  0.4942006082201433
  0.4017471481767711  0.4727754845966518  0.4353212857276091
  0.4017926978076196  0.8586711750172555  0.3945234162055130
  0.0161614166160257  0.3015936962238946  0.3089932207197683
  0.0509918061420470  0.0210713970339711  0.5758383959423634
  0.8721353181472931  0.9569409095095930  0.6442956922013835
  0.3918958766251943  0.9797791145263981  0.2945881220308009
  0.6965525527475311  0.8100509850799137  0.2432640233242157
  0.1771470581595878  0.7291505948566054  0.4394700637968946
  0.6788172471761984  0.6342651644165493  0.9899143729424226
  0.8947979541045561  0.6826755206497208  0.2295285004843030
  0.8033114274349272  0.3874778231421439  0.7981816376922575
  0.6895169038799402  0.1805946959381634  0.1984401139245439
  0.7342603472310033  0.4377077437376234  0.2614672461377110
  0.9641796136407867  0.3584396169007140  0.2819431832387258
  0.6414034582413100  0.9601361621095549  0.4546446830891130
  0.7847344034194607  0.0293877731217146  0.6470278506803557
  0.4903077721485610  0.7068401398554366  0.5261802852262107
  0.3285660982139285  0.5713286100465740  0.4935477922516133
  0.7666860232799249  0.4376106481631165  0.1881442772310024
  0.6917432119204953  0.7779311582284800  0.3371500248443996
  0.3976766201274469  0.5263323904530179  0.1673853029921028
  0.6015101753374051  0.1197161059199165  0.8240633625240064
  0.6726032793844694  0.0776360729490173  0.6674802680823674
  0.2924739748351354  0.4648857522175175  0.8890279369258391
  0.2555125350756111  0.9759784205535229  0.9227004735974473
  0.2783104791349776  0.6336468365577214  0.0825860617623127
  0.5327417412074871  0.8733178208287642  0.5621798754424174
  0.9738682398629150  0.3464358925154278  0.4091034694250698
  0.6651139964173407  0.8606807219363568  0.3751012100372707
  0.2713794119218612  0.4997485756039961  0.8465019375007424
  0.9066129994793118  0.1974553405890862  0.0211898940448037
  0.1160524984586895  0.7148270050532568  0.3314741237058742
  0.3090613775672358  0.4354181205928636  0.9760311583109076
  0.9542679692751416  0.6138366577774197  0.0156113875980974
  0.2356414248185570  0.0279961746363682  0.9572655297732687
  0.6869702959004667  0.1300953043969794  0.9480951190569668
  0.2922935640323308  0.2133455509134448  0.3606260364256201
  0.6402699688993290  0.4238618105292314  0.7118482156213175
  0.7958759250621936  0.6483784735855802  0.7240626675710686
  0.2791829985150981  0.8957397104133333  0.8614103354018693
  0.1394416286814785  0.2213515223750633  0.5730272053156720
  0.4444000012753510  0.0933210725029169  0.9885601745960195
  0.2401367972170951  0.5022552578236416  0.7874439174376352
  0.3256243294958595  0.0433087044676939  0.2979176026516767
  0.9130740451541551  0.1035721882485915  0.0844808779881770
  0.1499208277790060  0.4764439244900968  0.6975723728553751
  0.9404251273336021  0.3698733191272625  0.6133833588754926
  0.9688897359751156  0.1546739485179259  0.2859794280213320
  0.7756135274611542  0.0806472415390261  0.8843114830810898
  0.5049324811386715  0.3515343226594269  0.3004723298621599
  0.5232572503301506  0.6217954781084951  0.8219730702249546
  0.3466710895054591  0.2902017074777634  0.4673417451096203
  0.6131788510889112  0.3740481681218087  0.1734211504980323
  0.2084047753789157  0.7805422731258844  0.9017727459837525
  0.8256674693111234  0.3375965453057589  0.6735249238366171
  0.0855948420693467  0.7328537835690051  0.0650578384814309
  0.8852299245338481  0.4918092339785084  0.4791750401320586
  0.8603047791940963  0.6620552064890297  0.3010040836270325
  0.5101190310100520  0.4521508128670243  0.3229393966357881
  0.4426792829639603  0.9498908843889295  0.4294567428227326
  0.1808429097687355  0.5809477013866140  0.3494630621358154
  0.9115509817004201  0.7075485986273089  0.0000266752543457
  0.2395516166775273  0.1508095763101014  0.3856802700895918
  0.8069630702036686  0.2042502617060729  0.1035310427419032
  0.8634075172535614  0.7491021525401784  0.1357141288312731
  0.7659421080496979  0.3898918046003978  0.8823581003838359
  0.8604552456770301  0.7904719436741383  0.5128714130781908
  0.1906764530911350  0.7773124579278629  0.4497481163949904
  0.2800567283310343  0.3427576574029206  0.2807721890085482
  0.1305094503557917  0.7341051134931649  0.0393510774913160
  0.9245406339907112  0.8241115564915599  0.8380626300171108
  0.8976448991430336  0.4186746647509879  0.2167944177499255
  0.4730672182503200  0.5811088197047257  0.6114754140765505
  0.4151199685800378  0.9432267089621258  0.8314154379359054
  0.6143307762994694  0.1819808497901004  0.1152185081816865
  0.1529976159567917  0.6202343138597004  0.7711633694958541
  0.2316663163556874  0.2049974730461364  0.8273395839689923
  0.7212263743677689  0.1144680286649206  0.0505224643100398
  0.9924612788753275  0.9116346321263283  0.2801660586183244
  0.2725697545030002  0.5622338050135284  0.5728970369102627
  0.4739135549726429  0.1262217980542689  0.6221431152747582
  0.1182893652239753  0.8439657578913733  0.7667182022505324
  0.7054830364630760  0.0195955871322712  0.3414083752881382
  0.7649829214651747  0.0937373786241080  0.5182210924533459
  0.3201337181475803  0.7478748823556165  0.7133444632662128
  0.6873089199754253  0.3910708808174063  0.4471140963275355
  0.5350482732094876  0.3034459051090471  0.7168975579374683
  0.6109823011473322  0.6274925339406606  0.4362941036816259
  0.8771232075681862  0.8520090852644726  0.4889955107476488
  0.5175691331009316  0.6432909187418329  0.6632099995013667
  0.6642016630099291  0.6841698315973113  0.9418396612498942
  0.8207195801384161  0.0041442741423646  0.7357422931111842
  0.0669373659718387  0.1424765450910864  0.0800103195238604
  0.2161040410269305  0.3820138041376308  0.6109473661074828
  0.2027663791285869  0.4377360865577998  0.9776050973130801
  0.1715993142408087  0.0615167923020638  0.5028869190985314
  0.1469680813391933  0.8670940950621518  0.3803393058523096
  0.0936082158115303  0.7738935167891634  0.4385202999896442
  0.5698057700579127  0.1215521228982730  0.7886364015590633
  0.9890114995564626  0.4885311875687543  0.9752277268827281
  0.3461046427879001  0.7416338752899742  0.9985619498747089
  0.3304292755097799  0.5686102691579898  0.9054182062187890
  0.4429087443504341  0.2490097572982610  0.1416724618897754
  0.5960334560678722  0.8293196334983699  0.9763795403607496
  0.8591546789483064  0.2778865100239688  0.7523616885929975
  0.0401965575975233  0.3370025006516025  0.9740388182024784
  0.0522029216639920  0.6720769446476331  0.4954206902781691
  0.3766129512606067  0.4772231099577837  0.7650719350528508
  0.9705084424803788  0.7731504954192311  0.6589097866004950
  0.7608351117445418  0.9131469692565275  0.6159694829288256
  0.1727608484495345  0.2192722729750684  0.0897755383999871
  0.4184322423902415  0.2848247281194424  0.6768456148312622
  0.9186795920386553  0.7484491875949326  0.9670261862374748
  0.5840602719093201  0.5437032244892048  0.9548083823116187
  0.8614924215722620  0.8044817140257049  0.9666666309339497
  0.7593028862227865  0.7691480124848376  0.1431914750390502
  0.2154308524925181  0.6103022969281731  0.4883050781583853
  0.9854140843122638  0.9262696577540066  0.5964807959011683
  0.4985224972331604  0.2365463280122694  0.8221086390363106
  0.0098173141714246  0.5940277080550231  0.1273800454642029
  0.2778689307715073  0.8520937785273912  0.1557426888548128
  0.3212213971494603  0.1492403486965653  0.4548954481459428
  0.1723783507317798  0.8442466534889688  0.4196280784877747
  0.9535377599027660  0.6773867727513181  0.5800039711363526
  0.3269209110974362  0.2003797348976779  0.4470431089224682
  0.1103754427506169  0.8593820174165803  0.4876739010578218
  0.5820993286437408  0.0652051345536319  0.8883944879303601
  0.8288612321439276  0.4739978757937721  0.5955883881294917
  0.3202123033651522  0.6854138616623978  0.9497278293735129
  0.8937881899250268  0.4062466174349930  0.8232061505014318
  0.1495321568385914  0.4105402753603705  0.0774956437723090
  0.6831729539036966  0.2867313321279425  0.6249205254311474
  0.2515122123035963  0.2399618799306847  0.7467345400847097
  0.5130425128362595  0.2679380497874377  0.6126402630172023
  0.7002383856725429  0.5599197869315601  0.0569027320162760
  0.5811170506682722  0.8387230437981453  0.1529490216143145
  0.8794276538961658  0.4609904207859458  0.2773044766175218
  0.2607470740715608  0.0919865763271753  0.6976578110018726
  0.0877091941079963  0.1832346936963389  0.5369223630497696
  0.1707247650529357  0.0802094827707633  0.8718741619645377
  0.0834002567582070  0.4664979409914655  0.3835991398585602
  0.0057804664986718  0.3000704465492649  0.9768124666967943
  0.7591317119763600  0.9751276890180846  0.6410358581951329
  0.2990501236450052  0.2640184910174629  0.3167809971590435
  0.7027049186672868  0.7611642013096908  0.2133693685658795
  0.2927093952902403  0.9563071625606823  0.0266388757120681
  0.1664537329662666  0.0769559895859779  0.9339854598174724
  0.2715752231926592  0.9524939545436820  0.8702847293839245
  0.6758946964544645  0.6841181366769369  0.8856877299814274
  0.9689962543268954  0.7405917831631217  0.9142556539753318
  0.5348676016974303  0.3978750571128605  0.5475145702972579
  0.5928136223098074  0.8289596312646974  0.4446508408205387
  0.3446955837659126  0.2304763462163378  0.0115113877644227
  0.0641766784517953  0.6936790153652874  0.9272892543967768
  0.3423563141306204  0.4177569681818082  0.5839613141258659
  0.6278684766829211  0.3473998091106769  0.8247579664613115
  0.9170700476014124  0.8236645518558744  0.2035409090739059
  0.4901781624058358  0.5817893825865690  0.8669513008800807
  0.5181270509015123  0.8466736331656741  0.2703231856290995
  0.0296951516583004  0.0587685955485337  0.1433792043230174
  0.0946867606785242  0.0196577523224511  0.9129820520321635
  0.2758655105198423  0.2839107187239782  0.3851183671618640
  0.4562851774390585  0.4585524540764520  0.4226664213618456
  0.7250430088492320  0.5601401979825505  0.3909424256442285
  0.3426067439898397  0.3418603333996234  0.8676873948327294
  0.9890750381257410  0.4202381753830560  0.2833944585375463
  0.0240459871847345  0.2713138807890093  0.2655476625165448
  0.9708278485590024  0.4902893362799836  0.1034337981906804
  0.1753381456324577  0.3051091556523272  0.1776415305013375
  0.4265959429496877  0.1417726580421794  0.6792806392506194
  0.2776051861183155  0.3254253710919407  0.6365326645190166
  0.2573072017042951  0.7515864137640996  0.9186040608437570
  0.9044910496281576  0.5379774161508946  0.3198396753548177
  0.4301093353261889  0.4535640059928746  0.4809984406447979
  0.7783094845981929  0.3390043752698413  0.6978221323193734
  0.8912725691024348  0.1000502762661569  0.9289498233591730
  0.2907453793798981  0.1905035097462086  0.2590272868646437
  0.3437089482215077  0.4944425091623845  0.1940754872161887
  0.3767525424432888  0.0373359625674627  0.2804607159400397
  0.0553887049314572  0.0549104524296376  0.7332798569761242
  0.9081752438092959  0.7237723864403792  0.1638186700618012
  0.2737852741491054  0.7403732343210784  0.8501743625213344
  0.8978712692626550  0.3436225789705366  0.0957695048266940
  0.5589308794922395  0.8240101033481164  0.1059193722719094
  0.9099472473550925  0.2345681779360179  0.9773717997761752
  0.4237088114421295  0.5125663832526397  0.3437791534988171
  0.6180340022560481  0.7740954547273977  0.6155006904484577
  0.7902354431378440  0.3729607870733604  0.6611961322575080
  0.5086776812849200  0.3613342344882399  0.9047726901093320
  0.4096620203766926  0.2901470144009841  0.1729559520809325
  0.1824066438658773  0.2033271461088569  0.7922910983504780
  0.4949708550848837  0.2233809576857206  0.5804737319653730
  0.4582250404993555  0.1052410440408027  0.0380422774712845
  0.8584348979460351  0.8479264528569916  0.4082131845715929
  0.5829495760048529  0.6856537141747970  0.7102190062575922
  0.3313338621279712  0.6450241883415276  0.8099270364523881
  0.3936608782653494  0.6301766474287952  0.9642397257456021
  0.7163290627900675  0.5376178608473694  0.5228773969491010
  0.4237463908186840  0.4247668440775700  0.1860592736053606
  0.0565857468092838  0.6825868795038341  0.4440836864635798
  0.0572819615573283  0.6236947822579222  0.0474914585392210
  0.0670878883210408  0.3919824320970601  0.3380848537358934
  0.9047946641749089  0.0566804587563383  0.5452097142833098
  0.7761297317813177  0.9535484117379439  0.2830562627706455
  0.5473429863648630  0.1206187372187132  0.4451942706355103
  0.8915566676994194  0.9413505706920020  0.5629244983120444
  0.2950783485361509  0.7571530032374244  0.0122723387148748
  0.7831066093345351  0.7237016969887435  0.5709531887228186
  0.4596568557146777  0.6829543305732955  0.8990200287180031
  0.6196576994812898  0.9600066268551876  0.9449401646586224
  0.1107336758857895  0.1960651457437338  0.2793874504354111
  0.0261714752328883  0.9052740712462758  0.3532332531261353
  0.0526620679020134  0.3110074231612376  0.4604003612589365
  0.0753145827536484  0.7498140377765136  0.8862280685295467
  0.8924969342410393  0.9015484615381518  0.5208119837615837
  0.6317436590136841  0.8737842669258585  0.3253457430373585
  0.3099390552661401  0.8588014551552016  0.0547253162716295
  0.1223963553244856  0.2508097312224445  0.8673792364961471
  0.9356965318865166  0.0513578698658427  0.5029661747113242
  0.1544004272677613  0.7747064827271526  0.4870410479692057
  0.1605464896102308  0.6645088529978590  0.7389103574605168
  0.2834107342437448  0.8598812383911454  0.8321382729608503
  0.6149777821760842  0.3165018147936794  0.7709151742873714
  0.7128173836457977  0.9559669742302079  0.1078535649059623
  0.0969781156776050  0.3154381210430395  0.4369309418973889
  0.0829155144582064  0.9718055082562818  0.5557651615261804
  0.5381633018480040  0.8898615361389632  0.3690251201959923
  0.9209960309922550  0.9908152351427195  0.7290755850802122
  0.7222590064731697  0.6755209883629406  0.9305489394263116
  0.8318358502278250  0.7343638860484676  0.7464506649527988
  0.2794771344183082  0.3300926998646632  0.2234781463706749
  0.0837254543066563  0.1680365547051172  0.6342729112057697
  0.9823638605451099  0.7094453701725678  0.7565113605225775
  0.6454197960102706  0.2304746888503748  0.4408250815152344
  0.4964878104932720  0.2684916845074399  0.0418163115953192
  0.8956523355695309  0.0306819897179283  0.0935327311718556
  0.7940347218319194  0.8688246830809627  0.9175002178682153
  0.6353602177658602  0.9056394366417164  0.2378340641213469
  0.2012335018337001  0.7761713707733773  0.6346857256851847
  0.0185107945542595  0.6330123447252318  0.5816162343986584
  0.7165793436725709  0.4220508495722594  0.4709952128431297
  0.5723546871764805  0.0133625212239081  0.0097721160325149
  0.9900433867782845  0.8261743625865510  0.5388997309982633
  0.7858514308343486  0.8011497008006611  0.6145902564941722
  0.9813205766045313  0.0865577251386301  0.3043519256281277
  0.7752125566306434  0.4670198809151864  0.4434974630870016
  0.5336015230784088  0.6744352460583658  0.7394240291765122
  0.1426435479894712  0.0499157193908634  0.5569763794696175
  0.8798784574381039  0.3259100295925387  0.6919192279101846
  0.3447509658600023  0.1449499868810244  0.3124767991310248
  0.3378383717596422  0.5947407478609056  0.2469625565142474
  0.9677649617710076  0.5614021052535304  0.0126083778110386
  0.4043727138156057  0.6811924574441717  0.5038712082596629
  0.8833845499555318  0.3750930535620819  0.4742213408674361
  0.0125812070186184  0.8111225001081319  0.3093242097380435
  0.6695878416804494  0.4529766280467491  0.7477568183083640
  0.0872463793183489  0.3922264187133221  0.9668071159769265
  0.6445062707891327  0.0310734190553460  0.2641344507686050
  0.4690509922138962  0.3616054093551310  0.6571681743047167
  0.5592401923983693  0.6336764084358029  0.7024719935721712
  0.4050067587179480  0.1798539092189677  0.5742443823277401
  0.3976254466255779  0.7354228870325606  0.9162057591848385
  0.9351833815890265  0.4337358010299640  0.9178038324149667
  0.9598531063495807  0.0299106208722972  0.4392887591337953
  0.8698768311361301  0.6956732176826638  0.5127301831516353
  0.8177274572904147  0.2724952102788438  0.3931453443404069
  0.4193121361177931  0.5439911592366208  0.6237368681801289
  0.6059282660646345  0.1137482849068282  0.1989296327904941
  0.1711891254760092  0.8983259461992031  0.1106937966811853
  0.3796028394578714  0.7306878855866972  0.3327555096824418
  0.6542448786994040  0.2927861555430439  0.6824297090686906
  0.4291810614101892  0.8221541514229802  0.2890110669431928
  0.7466889532096823  0.7691472676012587  0.9339639326820428
  0.7668215920912810  0.7751092412782528  0.4507828714185909
  0.6124911373247106  0.2972274121495764  0.4993727073500935
  0.2129845058427619  0.8401536671997416  0.5351560951075304
  0.1025626382230913  0.3732462637049659  0.8816658055856252
  0.8200944738390203  0.8739153664357415  0.6208961056753559
  0.5932514276332939  0.0364957757901878  0.2637595508633550
  0.0942448491843092  0.9687211688212152  0.6048136967655570
  0.6073145316491082  0.8208736965508864  0.3912688708726724
  0.7914905719682561  0.6781208555183039  0.5999388061835798
  0.7370731021132104  0.4091149778763635  0.0793656786526085
  0.9816005783418321  0.8133914899777569  0.9835947061708505
  0.6830956349882089  0.5692430105140691  0.6453305589575208
  0.6742762134142750  0.1641981696231509  0.3049472924506367
  0.4876544595964131  0.9311059633665977  0.7216733790034545
  0.2701912667472799  0.4168147649428835  0.4420780874274466
  0.6882262441028155  0.5135593503074650  0.4840920166362426
  0.8628861732367034  0.5743065056182186  0.9763470634367104
  0.8332250581024354  0.8160237595688015  0.6179467391447825
  0.2012215092080802  0.2651655186184901  0.2348120341976536
  0.3003624409121857  0.0278385363212267  0.5795678790450975
  0.3619069754720404  0.6069440265569735  0.8400507987774983
  0.3616445902313801  0.4270595957333614  0.0234508182219261
  0.0666470010417467  0.3168809605353292  0.2460179882699597
  0.3295868121820671  0.9575888092465026  0.6930122700738324
  0.3340025192818440  0.5437141742778144  0.7900831889343211
  0.5537984081686858  0.7691843628034869  0.3143029184688270
  0.9743371440758197  0.5613721609336594  0.5665015037461819
  0.3719367211291167  0.2706403570569864  0.3501958786007171
  0.1386845290119053  0.8043665550244101  0.0830694632718713
  0.8973902234474148  0.1263423109062869  0.6591474789505155
  0.0850993641347655  0.7260952313927572  0.0130353520617359
  0.3625257875051945  0.6265664201870397  0.7205301316865902
  0.9083766603290250  0.0108736952603051  0.5189554731737632
  0.0028702840450189  0.0294858044562175  0.2802199137010774
  0.2924617215002629  0.1310040064969440  0.6080010163554036
  0.4974999583002535  0.1784192448239562  0.1215727841065422
  0.0205060606584969  0.4517994140386878  0.4701670512801314
  0.6371554616793179  0.8416476057055423  0.5385706414331143
  0.1818566590754117  0.9540124742075859  0.5511615575436312
  0.8192836680634099  0.3248543805845506  0.3687771112084043
  0.6208413939764873  0.5752356361503340  0.7591165163513509
  0.4514717397523387  0.2901158782673870  0.2364864393725274
  0.0628258367370196  0.7806619759170104  0.2236954289106341
  0.9409208473553462  0.2444045518160171  0.0761577630318058
  0.1855281529915300  0.5777952795924379  0.9209014307777375
  0.4398363975409875  0.7686007465194348  0.1667441630736717
  0.0119611635997979  0.1788396571158758  0.6144323039312708
  0.1456643209221251  0.0260748847825583  0.1602449048712319
  0.5125298467130956  0.5939198116686225  0.9257603063627686
  0.5984337316682746  0.4568615311082165  0.3906322561219831
  0.9088652294684121  0.2636081346538582  0.1663826896949310
  0.1574613121811379  0.1742745636143546  0.3414773142633636
  0.5948027966630263  0.0297615091463727  0.3161327622245236
  0.1775387551895416  0.6744626577740686  0.7846101568385035
  0.5356999718526493  0.2307215060242365  0.9532932146238198
  0.7541233382570476  0.6024409073692151  0.2921660027194477
  0.2039632021968621  0.1868278631041380  0.3926537211783463
  0.5889654792529577  0.3448290669032478  0.0189432762879181
  0.6141381866501502  0.1451322598927762  0.7811886086072782
  0.5338671858068161  0.6317494691055994  0.3896448756939992
  0.2238869198566746  0.1746186625836180  0.7840961871690767
  0.5304920065783761  0.9363536681798041  0.3415617468170295
  0.0594445075635314  0.8976367799120240  0.9243117312669216
  0.4334034712212469  0.3544616033918866  0.4012341096118179
  0.1293681118030983  0.5393767916863567  0.8212406262018422
  0.3216618840538307  0.5360223947097673  0.3879633755030366
  0.8517377241766868  0.8212401047833371  0.0799245927349761
  0.5466685315283665  0.4821286152548529  0.0235243987529523
  0.8713578086676584  0.4825205729940593  0.7270493527689442
  0.8107995930766876  0.5474163946415616  0.3801216136263820
  0.9105593181918580  0.4752799694097396  0.2267614255875707
  0.6707316104158187  0.6918209032777725  0.3956703506960927
  0.2708720717162864  0.2005115792911396  0.6627972595103095
  0.0827477294320638  0.7449282718942849  0.1531848052001641
  0.2935700523993672  0.7863864807090576  0.3512440042845585
  0.0897312364491332  0.4668234923596148  0.5263441223693853
  0.4560039466438525  0.7687606730238202  0.0539378160409933
  0.5794902621761783  0.0072593723227463  0.5753681136948378
  0.2566083519305902  0.7310060253632364  0.2443518513028114
  0.1025004032000759  0.2524321062793336  0.1005812013480480
  0.2553825715131861  0.2533568419983336  0.4552862885597809
  0.9853778829703305  0.7269768755967191  0.1862640607232841
  0.6864981886881728  0.1064717500008723  0.9015458544456260
  0.5839774036111698  0.6840098306045678  0.3163707152837967
  0.2249713586149863  0.8823934078654747  0.3301225324519973
  0.9092946548516361  0.3064577115056202  0.7368660989666398
  0.5282319925558766  0.9710054288042073  0.4356317159591073
  0.8216402562419112  0.6004197030221043  0.7442628673932716
  0.6770572362560218  0.4863328126624071  0.6399692593985352
  0.2975031121842092  0.4205001136935690  0.9220927230854393
  0.2539023574873261  0.5276606668508760  0.2751880947711197
  0.1722587596731908  0.0128417684583910  0.5712206019276365
  0.5176362098672097  0.9880151432813535  0.7911211097131320
  0.5098872232403047  0.5105441360685186  0.3809997941217021
  0.5372965925597987  0.1602158544116556  0.2468555539881414
  0.8895252212030993  0.0332615262071106  0.8210047215724111
  0.5167290534006712  0.8295889089121349  0.4481300802849483
  0.6186870044454729  0.4792933276443848  0.5808689671923265
  0.7327891276743583  0.4920162743692580  0.6176928828211002
  0.2397395694265681  0.9248719582065968  0.9107733232440699
  0.4551858410091690  0.9010654790256064  0.0405875190549429
  0.3534101257319403  0.9511186015036390  0.3221071382131060
  0.4768787875234466  0.7298747706719921  0.8908278736058437
  0.4522310740726486  0.7840135795801789  0.6447921571067067
  0.8963073861887975  0.0396861680247974  0.7632241023587243
  0.5158073344601657  0.6995614354760572  0.1357722576835599
  0.3183137068551250  0.9167728390534396  0.6632535007023733
  0.3222226696561902  0.6187574331878559  0.3921403474157826
  0.3349617803547251  0.8347636896229690  0.0169667544806148
  0.6297259183752152  0.0055367144043490  0.5447230445970489
  0.4495258803792317  0.1969371995716176  0.1343123231131350
  0.3335587176455477  0.9055239051986320  0.7692838047612673
  0.4078094576718403  0.8187994192487803  0.9060156773374083
  0.9799153537329750  0.8887529259085168  0.4562817137304167
  0.0516598503242428  0.2072905971437171  0.2882637997368608
  0.8096842788940313  0.0974339844278793  0.6091935749651898
  0.8090103082318610  0.8397693072730396  0.1805427403085365
  0.5339173909600327  0.7463797520360894  0.5824939679638311
  0.1669496019647267  0.5319596506938424  0.3829877021728369
  0.7972147788068717  0.5870786891476558  0.8040732198710474
  0.3027195691312816  0.2450655242597359  0.4778698551251459
  0.0787719598850178  0.0958879506267806  0.1430791931505789
  0.9649339572411179  0.1954913805450124  0.0618014588727774
  0.7858872597344926  0.0960211544327737  0.5638110587476268
  0.8863592425277874  0.0473116529543242  0.3681391556672730
  0.3797422444196587  0.9733117373411341  0.1206541564328890
  0.4788668445512972  0.9439266760611988  0.2790855491208912
  0.9662058459520547  0.2628842940360820  0.9553579574161161
  0.0684199124144051  0.4104711129200715  0.0758067459563036
  0.8158531067408802  0.8313571135516792  0.7598758506716607
  0.9613782554773364  0.6822212161549622  0.7981418609091453
  0.2447293024343191  0.4643085791764227  0.4568337469507243
  0.7298953294587693  0.6368824618476584  0.8672513399856533
  0.3264831430181287  0.7782323891477789  0.4633225395388809
  0.0375587875068009  0.2142329120988746  0.8513666231776890
  0.9988944659043207  0.6614508079531268  0.0468877722982404
  0.6625504050922690  0.7819974776855835  0.7068836410564432
  0.3720603718032107  0.0052536714470613  0.0788248838632972
  0.5534960599240186  0.8031430092577426  0.2722121917630486
  0.0744527152087058  0.1030999972368950  0.8136144336329155
  0.0130499715658520  0.5435642664575649  0.6289491537791596
  0.2541744262145118  0.4136040560086600  0.9654511299099340
  0.3891478893701708  0.5580307249313425  0.8158787307359936
  0.2888702839467846  0.7806350111314549  0.2414704181546316
  0.1770773184345152  0.0697901211022316  0.3362874496600571
  0.4161768466459311  0.1529868710111663  0.3887948517979609
  0.3609070437557524  0.0540623791974714  0.5019760754582775
  0.7212381435283153  0.6690732016158013  0.0781361272620863
  0.1176403109175186  0.3070206758924480  0.2404873208072263
  0.1107914881625553  0.2737101340180859  0.8156159358093649
  0.3126216417429380  0.0308567487165782  0.0558784426069587
  0.0609724546602305  0.3698179370331728  0.5260338783587820
  0.8953041769847625  0.0833363736802733  0.9780501652514606
  0.1160317720731072  0.4054996854262716  0.4435484503679759
  0.1105288701457766  0.6957234228358803  0.5367077620906944
  0.9845927756781913  0.3045594129490246  0.8481403834208459
  0.4400416874553267  0.2524884939662548  0.8369138705617627
  0.0862208236069476  0.9893402166798222  0.4778276574704024
  0.2912168348190604  0.3630318241645064  0.6836153402611932
  0.5860852006743252  0.4169577825900284  0.8830183651881547
  0.6303311362830548  0.8502869144301031  0.1456079518572934
  0.8105870033032754  0.8915753642772495  0.7066935467671133
  0.9792913647589476  0.1643126768513141  0.9203038106824022
  0.0541990746452406  0.5307855651968125  0.5983233399218847
  0.7537666879994801  0.2843892319350504  0.7916711317477765
  0.3134426896677580  0.2421284669303033  0.8119096930742918
  0.9005403361024963  0.1339496858538022  0.9651411093644043
  0.4386937833751652  0.2775857446569067  0.4892102234392608
  0.8507725040351747  0.5845513364086965  0.1838873048218846
  0.2864864888955648  0.8569922074304610  0.5879427168549772
  0.7049015803414026  0.1357914943019845  0.7586566252297506
  0.8522262188277160  0.0195742508732587  0.3882757796760186
  0.9457190894170567  0.1671825084377529  0.9750867204212462
  0.1210665426042462  0.6362838734036708  0.7143757545811718
  0.9060449512620583  0.0878106565624844  0.7925013044964377
  0.6021171437216551  0.5490941704146298  0.8097602570190769
  0.8941993656605683  0.2279769079894970  0.7128209590869763
  0.9272306320591189  0.9047644963899644  0.8566973080215826
  0.5521076341771660  0.5228365773289784  0.8619393517195896
  0.7907030810486646  0.0654761511327625  0.7812956483775634
  0.3581065794525969  0.2243240734070295  0.4013937009185927
  0.6096491457620326  0.6053754879607479  0.0764499389600990
  0.5802230786410800  0.3320791553928191  0.7983645810992303
  0.6703287773763609  0.6608858137585467  0.7218737526861732
  0.9007372088323942  0.4306235657048684  0.9687479846300548
  0.1340248352958664  0.2689579257615501  0.1387442966080657
  0.6064697591823009  0.6055181704102823  0.1736287681735555
  0.6720906505054846  0.7376719140222717  0.9413239783482359
  0.7670945919229405  0.8517970169095658  0.2824487729678903
  0.3204308149630166  0.2074330933723568  0.7260496445177298
  0.9717897912127674  0.5520748592996954  0.8976735771608204
  0.8797235961420546  0.4980552690083082  0.6156163336240787
  0.1400515021116861  0.4524469040896289  0.2896775329033059
  0.6231896394589050  0.4834060905926313  0.0538897524280661
  0.6062203721600921  0.5870935495750544  0.2967744298231702
  0.5256608406624791  0.9230192092808499  0.1863558117581126
  0.4781951457840426  0.3784998158542666  0.9442892853873974
  0.0725454035608058  0.6536363088154594  0.5936107594717454
  0.1646672041906819  0.9403351453972733  0.7903330228866773
  0.9882759270223193  0.1216757549502775  0.7772695526337192
  0.5383734335056060  0.9315590760476301  0.9841680430615142
  0.7048226226820413  0.7549543303776456  0.7986863708053062
  0.2338300727977062  0.2724723051087933  0.0696858327456661
  0.0161674268954027  0.2582443397348834  0.1193596139501095
  0.5438738028287683  0.7892918246201194  0.0702711157067260
  0.6801049274190075  0.3608424251052846  0.8191758089211881
  0.9517745459832002  0.4853479648385914  0.8068721944070452
  0.3952588025187619  0.1245428490895639  0.5861904154798420
  0.8521967959263502  0.6461974544666210  0.2396446712586189
  0.9879660554535052  0.2829412899902454  0.7894028867617303
  0.0391808529714526  0.8464674493910405  0.0840633241869914
  0.7760629157242922  0.8753605895554835  0.9597742231785773
  0.7566470783106494  0.0317365470059211  0.8648189971471800
  0.7324419374382426  0.8606639620558322  0.1452925495279064
  0.7841632266911758  0.0552825497104222  0.3411305337132161
  0.6959009285927272  0.5009421770507927  0.1358735711613323
  0.5034551907808587  0.8081123510775218  0.5150849836095472
  0.0233471537053580  0.2431385476853534  0.9574854938941119
  0.4170768522301123  0.5759135546954723  0.5718422817625693
  0.8355113292710904  0.2482167169960069  0.3468266584409080
  0.2595407723597443  0.0536265198823348  0.6643037120602355
  0.4679277450211248  0.5199863920469325  0.7132277400094026
  0.8958439941143767  0.9798972530620083  0.0052890097715359
  0.6407636777354103  0.7130991731036880  0.2003808336009567
  0.4384745641379010  0.6357866636147687  0.6928904816086856
  0.7155128938526891  0.9055212236177482  0.3409136236150464
  0.3720473735847593  0.4988677880161501  0.3717093081724848
  0.4922777657496236  0.0415695921874272  0.6726993693661451
  0.5523872634726774  0.1292136043267492  0.9685748736863232
  0.7898854968324864  0.2011128120718322  0.3917480172347867
  0.1785795437701310  0.8018340253445777  0.8149798052330017
  0.7427655769113658  0.1501010989161396  0.0172722230891492
  0.4227091776792732  0.0425853294021545  0.7382589567707867
  0.9359951557132894  0.5337988799826329  0.7875628008568242
  0.5038170179792993  0.7792206261918785  0.3332246746045990
  0.5209138465909955  0.7698974398535483  0.5401173921846577
  0.6536322119557756  0.9026927516920267  0.4740648035833344
  0.5422578523927470  0.3562169587896952  0.5746635283175756
  0.1729171995127413  0.2783844274522708  0.3414204051579371
  0.9826980153185954  0.9851029464413659  0.7436802194578720
  0.8046804489645499  0.0385202390029562  0.8943918435773508
  0.2386231565406330  0.6882722779079903  0.7101407934818098
  0.2587656092633833  0.1440097389614942  0.6983550965200618
  0.4004695611064558  0.7156062277651227  0.0396624760714666
  0.7455188900839783  0.1563421432259609  0.8719814251998964
  0.3558155037848581  0.2354259858654556  0.4717338766441256
  0.6399579371681363  0.6869269436761759  0.7992709554380109
  0.4405537949158064  0.7726607344661179  0.2739542509889742
  0.9531530275342747  0.7932473054006857  0.5446495618319924
  0.0286499589535508  0.0011604818424431  0.2220009677453989
  0.3459709734296703  0.3655135155400804  0.1198896824158849
  0.8063039227247180  0.1465839634996546  0.7013421541597267
  0.0235620107181634  0.1654332797073806  0.1494863837426693
  0.2825830568550728  0.7249297865452423  0.3494718890062251
  0.8456325093874743  0.0604772560569913  0.9924881691725252
  0.3218718294905379  0.7448969867839718  0.0508218283648691
  0.6822875852818405  0.4099645548422545  0.8503919430147251
  0.4551222651957116  0.9865951717149353  0.0057525781738666
  0.5854299638341638  0.6041379011386185  0.8101847661706806
  0.6096443040187698  0.8963408314614891  0.1167203610755129
  0.4568772109075519  0.4218604945736767  0.7020982109922894
  0.8038349316141638  0.7267969862124198  0.6904743772322318
  0.2515595682771236  0.8876234589378618  0.2878227541698063
  0.5299602341914140  0.1573237135620294  0.5704297590319400
  0.0394488434610440  0.0528148388685192  0.6677572157969949
  0.1818172361119994  0.2062806281212038  0.5983681074249754
  0.9580194264434527  0.5440264294740808  0.3182871889997169
  0.0434583143345118  0.4926176188824875  0.6404997654834133
  0.1988935431810974  0.0223127292238456  0.8787422865152388
  0.7125191322608143  0.0835586655623005  0.4068159691985096
  0.2044967250602347  0.0417518838212685  0.8043272996598032
  0.4161851520978356  0.4916690096447843  0.3914292815513841
  0.1148002467411009  0.1572359104101690  0.4650769638322159
  0.4849667334229208  0.6304586603517590  0.8600690235413809
  0.6134157240669948  0.2326878496957628  0.1073557964543760
  0.4962888893335322  0.4801331093912136  0.8517548564990012
  0.9465878471351041  0.8980233744894622  0.6126170226495413
  0.3937908604498639  0.0903824043627450  0.9459201334949964
  0.1087753490237810  0.7153979583164680  0.9232250206136942
  0.0524148224200938  0.3875640434163992  0.9302099429095635
  0.5839420216411730  0.1054611292052274  0.7045833660765052
  0.0421039018340799  0.5660250762091306  0.5209087068943012
  0.3301189942549976  0.2809163984694192  0.9282231894279760
  0.9669913256859832  0.8093132523833914  0.3352764564226228
  0.2733094797630960  0.0074351555363172  0.0596087683592415
  0.7815048861748705  0.7902360390447072  0.9619906987558912
  0.1684337824956442  0.3580617002169695  0.1643592693191731
  0.6449330145914728  0.7873318124590136  0.1510650993107913
  0.4116318650010397  0.8536904364787196  0.1257154820636150
  0.4527396805803075  0.6616689098650228  0.0291035022704023
  0.6527294130581736  0.2093202931636270  0.2267298797680052
  0.9032858279975305  0.4350808745525258  0.3254422427050023
  0.6401117556271749  0.5793825520106723  0.9786535209503531
  0.0065838973449109  0.9746795670570306  0.6115304982172086
  0.4744243961310385  0.0780893346067655  0.5773009748494934
  0.8934425639444267  0.8318447143424137  0.8985682568274127
  0.9534934393298227  0.7540872114034719  0.7279628035017240
  0.2603703864457214  0.4701313341125241  0.1923714729190543
  0.7771514885864670  0.3258896197824774  0.4125241610401795
  0.3801522283414740  0.3399543252979864  0.4783875119682883
  0.8784106643459215  0.5896778114194403  0.8713287582080821
  0.5478975149451598  0.8203603972766803  0.5390470689701656
  0.8057533792715681  0.6625923420377600  0.2760167777526232
  0.4108989740477800  0.3786114366585617  0.9185586974338034
  0.0335832623746793  0.1840654623518632  0.1044403128155967
  0.0956445971615607  0.1607285577789984  0.8261488130797956
  0.5443980146474048  0.4443309878117678  0.1717277694139864
  0.9834643515445466  0.5094081141223693  0.3515518646677094
  0.6054013354209351  0.7851987638425342  0.2859643813730386
  0.1642532351417196  0.1294211195807803  0.8372175595968719
  0.9907175809055284  0.0540826307197722  0.6815669849076322
  0.2112787224471277  0.2566505682074232  0.5027090408998950
  0.6948487060492020  0.8995570152900174  0.5165781399875902
  0.3874937636507319  0.1672182442274496  0.1743941919171226
  0.3957724742347571  0.2408186450231120  0.9770269186791539
  0.0641817017604304  0.5079534309811754  0.4285253031515226
  0.3197347212585536  0.7094144575040443  0.4487168250800317
  0.3678288371683118  0.6420943377607208  0.0057602545483111
  0.0975853075269287  0.9702373048576667  0.6536727336224666
  0.0952333562487060  0.7046957690085581  0.5843887283234270
  0.3223021487340567  0.5016674329473688  0.7595066863699680
  0.1611058785558798  0.7851989873076078  0.3588475523926873
  0.5338523626235965  0.8985173067906175  0.0909321843102265
  0.8692001044047182  0.5489413203042438  0.8371921590668321
  0.5082530604007798  0.3432366175441403  0.9676191880546208
  0.0717224329052478  0.3719834998178703  0.2227582722579562
  0.8269704941556575  0.2752307952222790  0.6618829149172349
  0.1917189735260453  0.4729506439702253  0.5361821722374370
  0.2117617235817627  0.9444159155958070  0.4357606925507902
  0.0898346728451054  0.5877700528413929  0.0300691158035545
  0.7697962846635364  0.2654358741134444  0.6548258134025722
  0.6441901421982562  0.9121504640047025  0.9451598308260339
  0.5862164119167449  0.2243382820612966  0.0484307427656210
  0.3190187019183556  0.6815625900945169  0.7681868892030093
  0.0993605233831592  0.1395964527333486  0.6975848124111426
  0.2232744207118514  0.9884834515873949  0.3197882411436960
  0.3471922100572432  0.6746280964169377  0.1791017816472835
  0.4245450922361377  0.9644666172837288  0.1070269303543007
  0.8776092441034050  0.6178205931106991  0.1146913540729134
  0.1850158220659767  0.1659795959462203  0.7498761610669922
  0.9837815974607914  0.8192022522882384  0.6611978454897394
  0.4938455594622704  0.3008130023669605  0.5741104522602576
  0.3406452420615761  0.2742141036254663  0.5621910114519217
  0.1743760726240664  0.0166095851323033  0.2596144972119639
  0.6703674368341046  0.0241980900837805  0.0428810202498355
  0.2133793872500154  0.3691675791804530  0.5335099396423856
  0.6751977088897069  0.1784182950973931  0.4405858621538772
  0.5284631299304029  0.5110159453273808  0.0599636262406973
  0.5016046765058482  0.2291641779258730  0.1116031226211472
  0.1110480540002556  0.3863766617474862  0.6501835499622790
  0.6771329164276360  0.4364043836954790  0.1481833961423142
  0.0713982502606747  0.9612852195183343  0.7944467914277553
  0.0112315489704047  0.8491308551156820  0.2022355750902773
  0.5702033144239607  0.4030047723671724  0.4966372713833741
  0.4750434688734453  0.6026022491524005  0.9607074133261975
  0.2378428909917566  0.3561635133929106  0.8764149722613874
  0.7893148415227068  0.9548925541560321  0.8320487379546688
  0.5317513440010088  0.0192769655091667  0.3317095814051580
  0.5937229389387246  0.5421471626929255  0.7075823418534322
  0.0163136219365638  0.7533322718962775  0.7583588207749146
  0.8242662688108932  0.0591210046252240  0.0752519008004857
  0.1370863906044640  0.6693118623144744  0.2692842778795467
  0.7263315829523357  0.1945767752426851  0.6047723929711081
  0.9314961333852150  0.5032437555769937  0.8813046115382265
  0.8578914308868845  0.2269757658373934  0.9707891891012587
  0.6380057462846087  0.2345061477559867  0.6936431119767856
  0.3483607834157895  0.3483789213309352  0.5987498975033301
  0.2446434546018533  0.1135563842748194  0.2704532423019719
  0.4661297450384253  0.8605397154748751  0.1403349210024050
  0.4603160404378072  0.8369888803381559  0.0924117838071339
  0.8145092622762236  0.5070029595345251  0.9617176989242318
  0.0897841231832337  0.5996794377214139  0.9845414531996066
  0.7702274232789920  0.8001798623809597  0.7136391392100176
  0.5169487568122617  0.7793556735847293  0.4502537061241549
  0.0569311726024221  0.5980899306524429  0.8347488664397493
  0.3549900238027438  0.2962032903390643  0.0961709598315311
  0.9457867993343769  0.5677877687101911  0.6180121399230080
  0.2323493001091620  0.8043946371353339  0.0946270955038559
  0.8427360295910010  0.0542071705986385  0.7737981716910670
  0.6853619432769501  0.6597532927652184  0.3484595922225278
  0.3344672521467070  0.9610578810500603  0.7588581162378376
  0.9898311694466617  0.2467040446681972  0.0036502787006874
  0.0955123710152648  0.6919634739947700  0.4760849650934347
  0.0718888817964708  0.6196571035744266  0.2576252669924766
  0.9119356395805536  0.0708246154165795  0.3166647208323804
  0.4159079809181345  0.2799832269438884  0.6221880317545646
  0.0959303903686873  0.5450214822029270  0.1038075249042938
  0.9914399690003259  0.0235404509940772  0.1138296634378208
  0.3605956451756019  0.8858384944177927  0.2760093661610134
  0.4668121701292158  0.1654969486312853  0.8511254298748480
  0.6630542443450230  0.7173484359677641  0.4460455608336328
  0.1172941355852791  0.5091426376148567  0.3438407926149694
  0.2494095176929562  0.2313029062796415  0.3927738336554407
  0.4141166848876449  0.7198683771151136  0.7740819723346199
  0.0125425498886357  0.5149605508076954  0.6803052266133682
  0.2773103425757055  0.6444893619318923  0.2047359071774129
  0.3754352530782192  0.6944515341249434  0.4560193657339353
  0.5234426518529337  0.3495444406668080  0.6630889559197988
  0.9137121869161813  0.1188283257374736  0.2946608412901890
  0.7382666290716491  0.4278302895282490  0.8108695376447446
  0.3987812824749253  0.3533737381691120  0.3620166223348514
  0.2196409344803453  0.7517143102745932  0.4204228692664392
  0.2810750586717206  0.4067827473908916  0.7483483303583524
  0.9422956044885263  0.4848339951691646  0.9272208740842356
  0.9675922232690654  0.2519707440126651  0.8568900094034387
  0.6019271611648619  0.4646577061098435  0.1145383456747668
  0.3874152901656970  0.4902379765572200  0.9288214054301741
  0.5878047644161687  0.1874890031466620  0.5657660057003963
  0.1335595437683193  0.0339888491556181  0.2199279567453771
  0.0732698587075346  0.7541476959500769  0.6479547838059135
  0.5236545339869459  0.8009416548170798  0.6558395999534272
  0.5685158551643669  0.3658646164149853  0.0771327551147684
  0.2331950036804429  0.7798426039802429  0.2640431839081028
  0.2987034362053052  0.7471063859672864  0.4088082720627599
  0.7029359815534552  0.8018568187820913  0.0342912602498372
  0.2308064227522288  0.6850383658502847  0.2531133395563979
  0.1133542601156904  0.0750399395225931  0.5912067594534485
  0.2888359820579772  0.3524062461326843  0.0521916599553838
  0.9413881873127354  0.0613344261798646  0.3664128507290407
  0.2321764312525936  0.9339786068885467  0.6380332324886694
  0.1616655840770499  0.2527933748150902  0.6228720583450498
  0.8375583438342095  0.9152076151891398  0.6338906369530887
  0.5032665117703284  0.5568396560887141  0.3020184660847507
  0.7699880176967401  0.7013429735316634  0.1881947617155609
  0.1670903477169561  0.2849297008377960  0.8750093024596839
  0.5794051592272913  0.4262157171268486  0.2886122190308817
  0.1275055583472441  0.9244683802835599  0.0348511799250363
  0.0215666212425832  0.8696379469723834  0.5525614172534195
  0.6194369159885098  0.4802951588137988  0.9992811349701172
  0.6985478723902759  0.7562093847196998  0.2653992817076320
  0.0303362380382243  0.8936259542815470  0.6200577764515059
  0.5310147658740337  0.5032555619817189  0.4902946994417516
  0.4795072582082389  0.9441894709878276  0.1645261791071105
  0.5111671194497144  0.0733159483789777  0.4386254403068031
  0.8407559800616234  0.9253077151002413  0.3434166559051554
  0.0010698323478524  0.8296359855543201  0.8838266383595969
  0.2125241864131038  0.6517464646874841  0.0806646811258166
  0.5378060556835733  0.2239735684389877  0.8595442530600604
  0.7814628002526638  0.3079841455575497  0.2778217237746957
  0.9013828739185670  0.1002864509158854  0.2190116382108184
  0.8200567827299290  0.9683317436861771  0.7756844403778635
  0.1609785779522493  0.2173746634357832  0.7344519312874912
  0.5704647313159684  0.2733452155527928  0.3091628865769476
  0.2610379138649343  0.8567558558708825  0.0749736355730281
  0.2806578307571007  0.7872728176795664  0.8655486851010504
  0.4849338468129133  0.8245670528000447  0.3043713670895365
  0.1325148817931197  0.4113594238320644  0.9031495887909536
  0.0660998747420150  0.4547781289822694  0.4288652307727443
  0.0563129238874744  0.0399393167090796  0.8661261933397559
  0.4468564038534222  0.6006702818580395  0.1320334449140003
  0.0186923389767607  0.4676668123034433  0.4110439283922300
  0.5181465296071001  0.0163206587586230  0.5480334189541264
  0.5280591795655766  0.0895151271008108  0.8109893149242282
  0.1371481135200189  0.3497688368449455  0.4963160403399823
  0.8605208699203293  0.7074934027541140  0.7852412222065305
  0.7996185926042741  0.8657789286152822  0.4131880012856768
  0.3096787370774112  0.3895047630928121  0.0129333030114294
  0.6164309383059414  0.0246622852358099  0.2148131950289112
  0.4838595384712743  0.2697319715325428  0.8610532382141545
  0.8839359127806186  0.5339268509814844  0.7223515955020244
  0.5181923027030222  0.7182632274909860  0.8113391867412280
  0.5012568903628694  0.8124638864569782  0.0045069474819957
  0.9850514749860653  0.6243223094289493  0.2129775225592099
  0.9250992966748709  0.2165229821737818  0.9116957125797964
  0.1315726506210607  0.8382907133689637  0.8193483239580567
  0.7045646694986754  0.5537960617854123  0.8204291500310109
  0.3436977004794666  0.1961209933900603  0.9721504638416609
  0.4355168549112440  0.3942887406339869  0.3090345245142172
  0.9169773095958419  0.7577859308143984  0.5292359093993115
  0.6976522988633889  0.7763704781540116  0.9006195917152890
  0.1381937252217816  0.2443739371009251  0.4772464248138027
  0.7485647935263747  0.0205813963214558  0.0778249428359646
  0.6021403096009583  0.3121626444816324  0.9863858594292702
  0.2413694678076039  0.3031792740319871  0.5061345370140884
  0.0043509348170710  0.3261797891806299  0.1589087327074378
  0.8069027346337793  0.6695757745664713  0.0997840828081996
  0.5608550999973801  0.0616009594909548  0.4528574094299495
  0.5644357926052331  0.5173762454981807  0.2106104315222464
  0.1211922882634058  0.4293131665129035  0.9485113600008447
  0.4237227035208757  0.6764863574811685  0.5491744316202541
  0.6618598235262898  0.2284582517581689  0.1145388391601378
  0.0715620967148940  0.0578130309604128  0.1765403691066799
  0.9118187673470274  0.2637735732967273  0.8757770539644351
  0.3701008438164312  0.2127338152742900  0.7431539592093936
  0.6882149963607744  0.5440830033818966  0.9645564502433419
  0.7749432812168784  0.0351940405253498  0.2330694163090438
  0.0517406748480736  0.9500248144564123  0.9340692592200963
  0.7599001338763322  0.0910292426405545  0.2879133320129980
  0.6921107374783144  0.6942525757210247  0.8042578765102516
  0.0102242836425067  0.9007545646197822  0.7881257093773835
  0.5387584638275288  0.8549933123465377  0.9958315046279682
  0.6650214818768441  0.5603191935065552  0.8693502729342203
  0.6636825536438079  0.4070386521444156  0.0495871558997420
  0.6106746269850760  0.0511172119480738  0.4875190025175937
  0.2083895425097276  0.1044299868669845  0.9940927973781474
  0.9442956913861759  0.5776075316863812  0.1278389403040164
  0.2895550181766696  0.5230987018603860  0.7959770802522055
  0.7143957174610855  0.4937816112070236  0.9365403360046713
  0.1454757443330870  0.8295076421136791  0.6170004762903527
  0.9453412844658491  0.2963504048458930  0.5198835236246893
  0.5704363884957920  0.0495018527633932  0.5956652228706530
  0.2315996120311987  0.1500527466608256  0.5101773181500993
  0.5735293313361947  0.2771530790301145  0.2415042172470233
  0.3666679733548069  0.7442055113576979  0.4561649159852484
  0.9899464029363144  0.1276349260028060  0.1537106185184952
  0.2350752015660717  0.4895160726367488  0.3016895999846754
  0.0850596897731454  0.6928786379597816  0.6348065458016789
  0.3827827102119293  0.3907139698505861  0.8737871719718162
  0.9209275761913561  0.1300255832939963  0.7043216884752448
  0.9068763903128036  0.1892875804141351  0.4757261919176674
  0.9853522589752168  0.2188520655261329  0.3423699082559349
  0.2764453092755526  0.6232752265821183  0.5407817910928393
  0.9897278540942711  0.7108663100876385  0.4888578935064509
  0.2253942290227163  0.0379282683840147  0.1370692862152839
  0.6049022261789068  0.4113722358296211  0.5368092152341378
  0.9162443441542244  0.9417287480849990  0.9214472069759824
  0.3322403481992887  0.4887972227389510  0.1188587728537603
  0.4207159437105494  0.4180627428909383  0.8644846189086210
  0.1405086278529998  0.9692818426910380  0.9262610915928493
  0.4246480723909177  0.4844079217620454  0.1597487379193402
  0.6289014812301114  0.5477880543032435  0.4308585764740049
  0.2169178822031248  0.9910533744228874  0.8259181226354164
  0.9548739320665601  0.1427895172377974  0.8637396608413835
  0.9213619922945585  0.5518715433268402  0.6923316699478101
  0.4228038151379698  0.6288739950260507  0.7392308808645087
  0.5889873043418189  0.9758342855810097  0.0513605793798608
  0.5553804664018681  0.3623753582664399  0.7593964436002938
  0.4934482758054750  0.6219510097997651  0.7030002650063125
  0.5241438852540908  0.2318118293628215  0.0104315032708674
  0.1443164633971873  0.9670621641143347  0.0170394376597046
  0.9493365420295274  0.6226436025514074  0.2666823995385204
  0.0427156514398018  0.5711281991196765  0.9993749158126981
  0.7827924174409640  0.8847666069477850  0.5573625643610876
  0.9953707196460732  0.2715991153334518  0.5372278398054681
  0.0444404247111751  0.2438472485443889  0.5631607753832650
  0.1900101733519167  0.9539090098784797  0.1784614797228787
  0.8614513784870655  0.0639416956157930  0.4453931917952501
  0.6933403168019709  0.9253299126308920  0.0754733081332629
  0.3328476890253281  0.2015000956665811  0.3269087322509214
  0.0828452905588075  0.4757832872439885  0.8534581817788249
  0.2752783374167010  0.8735408389722807  0.3490629851655992
  0.6932202415690557  0.4247118344252698  0.6839563479636044
  0.3326661608971552  0.9881781238084122  0.5436866880737538
  0.1129191549951774  0.2944998719487931  0.9676495048162812
  0.7181926125277083  0.2145894133797263  0.2584130186213207
  0.9167264328064753  0.2746179236356664  0.1095386777822825
  0.2357656155332457  0.9094428866838331  0.3813704854347315
  0.9013711047580206  0.4181792054384961  0.6666385496382335
  0.7051092538831942  0.8316825531872918  0.7799576884931799
  0.4440894593113161  0.1101314375122654  0.5121332334515212
  0.4116394255693652  0.2608414880651838  0.2241905902696943
  0.2723944461527109  0.4731938484587295  0.8104108383368703
  0.0074923131302499  0.5293569529808794  0.4842536563728594
  0.5345280837621771  0.4017298296335621  0.5975297409569464
  0.9473777961705058  0.7798676320684932  0.0082688530973513
  0.5901074975119169  0.6847265575841657  0.2496493143390870
  0.3440613153984967  0.2322681822874220  0.6045923918542718
  0.5287946031230043  0.7782910859737948  0.8709219027972981
  0.3921078704917434  0.9100104879709393  0.7928879735622343
  0.0987129588438602  0.0307964294410173  0.1383505045930463
  0.7801602223382771  0.2009857907995438  0.7218170670458204
  0.2847696812229632  0.2894476059645952  0.4777662045751449
  0.2521249162914037  0.0037037243884422  0.6618579613173424
  0.7855461030553659  0.7418820704984568  0.3293871461387484
  0.8718818342654003  0.2303946138656452  0.4129318358229002
  0.3937286999152064  0.8576487478168855  0.4450063737527379
  0.5555084001565406  0.1025772472522821  0.8677737268395216
  0.9404326506577486  0.7784253139947087  0.2328286885584394
  0.1159057936378292  0.5104711002336094  0.4984129248587072
  0.8704205961487121  0.7436023046355212  0.9792950891768422
  0.6354577975146933  0.1637412952800451  0.8581698683686696
  0.9052805517334120  0.8326666188833494  0.6036629633687249
  0.5635329564634521  0.1801494976451565  0.5166308405007960
  0.3201260458467179  0.6701234874620215  0.8860332814736697
  0.8356795239832014  0.1982506341641664  0.1711333150738616
  0.4599087008526969  0.0667642876167637  0.9068629079200259
  0.8433717132372170  0.3098948650478231  0.1042403488188465
  0.0023423443168462  0.4063290015588172  0.2044360356706454
  0.0074146467964055  0.2414250175004989  0.4451889819621002
  0.5392219676344866  0.0239538264639376  0.7295797967747558
  0.2690897887771013  0.3698534679798853  0.5363038117258681
  0.6582279201723887  0.8726854146702955  0.0360037615642484
  0.1106024367102357  0.4707063842354192  0.2120627496580774
  0.2944210446440582  0.4733519499983468  0.9350625614725322
  0.6122053254954946  0.3743737194899581  0.7540141383243838
  0.0994396486413257  0.0471969967494451  0.2542180205259658
  0.0720139151607081  0.8929568998509972  0.7778140625298802
  0.1209407317677734  0.6986436644185197  0.4290914146714710
  0.0888772832922162  0.4198545603399331  0.8717567683125063
  0.9449745782799667  0.1901317011078109  0.7992122586119952
  0.1332771490925213  0.8082170072203543  0.9959839822965647
  0.2904521932032511  0.2886269118594751  0.8266877363491147
  0.1846494696997942  0.1860808566070586  0.0448432484395884
  0.0181267826278546  0.1663400637321296  0.2965355270373341
  0.9790338585057291  0.6956811134486000  0.1417671738368299
  0.5350785899711480  0.3763955569881108  0.8142793912037813
  0.1383757747684597  0.3919587075550728  0.9842146727735520
  0.0451550753277968  0.2000458594555346  0.4551527309340878
  0.8417683513336787  0.4440138908722388  0.5340389559601058
  0.4320564982455591  0.3889112026129819  0.9595664006600697
  0.1439508372924943  0.8827280840574655  0.8583889386292181
  0.9507135338134441  0.8386350730474799  0.8868703071512566
  0.1382149637148244  0.5195480653049409  0.0911226510413460
  0.9951214071122222  0.9796565066893144  0.9314833958760161
  0.8515063633370870  0.7933582185655808  0.9112481865256056
  0.8589393331056522  0.7410366276364285  0.4143741538966846
  0.0775849972131180  0.5270735123698241  0.5233743832729294
  0.2479661940263402  0.9326404235390896  0.8278152666224647
  0.7781586456734698  0.6385618018762423  0.6371575473533386
  0.8230980678941363  0.8785946505899048  0.3677100654816594
  0.7983556424962837  0.8645816027505911  0.4655553653107513
  0.9870200533083282  0.1144730100738543  0.1065128489523370
  0.5238546842045909  0.6496674201304734  0.4993509567495903
  0.2680473986968172  0.9651443868521515  0.7346848563826068
  0.0039331205976029  0.2366088423666268  0.6057428272976724
  0.2504055201483655  0.1617530147871209  0.2358577203877742
  0.1209898289066663  0.1781777535676834  0.2082198580304588
  0.9009137462405886  0.9834899755396601  0.3613050350519478
  0.2258115686698730  0.5582138545592101  0.3362461831097872
  0.1159729355814204  0.8657772898714086  0.9909320328878878
  0.4320934817152504  0.6387307414719322  0.2884101879822001
  0.0659590358793383  0.1708265906381685  0.3168332507421019
  0.9530319094643489  0.5586720696927578  0.0700588238867453
  0.3177686755404588  0.0386141106282233  0.4572281628057410
  0.8309557702793788  0.4979741511865682  0.0066049827876559
  0.0392413747622366  0.3959065905231344  0.9773244251805583
  0.6273939858431749  0.4008999548383324  0.6501624697569969
  0.6882182738485216  0.6884965623535909  0.5434321985990296
  0.6103071759156148  0.2161667416021827  0.7976581335130208
  0.9746628816648637  0.5373838556710644  0.8201313455761748
  0.4486614057417631  0.0621198593585694  0.4247027840897864
  0.2229200051050205  0.3842040598129683  0.9244785851885907
  0.4304212553248447  0.3306875266465774  0.7372561944968991
  0.4058093335300119  0.1710681563827991  0.9257358741813814
  0.9240045412789916  0.2096180231301052  0.2114049429695689
  0.3245286057513276  0.3029742262048111  0.6759885517854033
  0.9360389548677277  0.8391297502322136  0.0243122970307510
  0.2516129019413714  0.9654480758872606  0.9768953722391236
  0.9109123185198889  0.4446728893744735  0.7224964753581165
  0.4533441163603893  0.9836807402242111  0.7264021234272556
  0.5463335201387653  0.2561316264401073  0.9083172931077884
  0.5603886539002858  0.6253535262555503  0.2036060305207894
  0.0498595318914041  0.8444457608696033  0.6263390072304078
  0.1226840107405594  0.7563946372657673  0.9852550516681731
  0.5912096644994060  0.2266067505124164  0.5148970122384170
  0.9739740878194738  0.3388438901027717  0.5961635872291025
  0.6983712604937234  0.9987627704875749  0.5547579671949984
  0.3072546252024845  0.0732924938572878  0.6057875203124051
  0.8317222554820459  0.9571163295924191  0.4567235041810501
  0.9011853307934481  0.7708689915054809  0.2025106419738681
  0.8149504568199939  0.3986714493912195  0.2883114536638197
  0.3435528578675535  0.3182119557582501  0.7550940705370436
  0.8693962322510370  0.2113482014629477  0.5884253641699122
  0.4511091676703191  0.8768919212169440  0.6116317651397573
  0.9396729438956495  0.2603896603083249  0.6299134055720194
  0.8868840874974659  0.8576331797500869  0.5438186814439312
  0.5940352313791699  0.6003296465974178  0.9446038497227585
  0.3186153102162134  0.7267697234734327  0.8009376324457539
  0.0783482794163959  0.2654340119044972  0.1445985321864195
  0.3483857370156819  0.7628798916569240  0.7542925758061690
  0.9237911321336426  0.5483129737612800  0.8352818306404376
  0.3595225286476890  0.9527136951994515  0.7974929928235833
  0.6662043570001046  0.2497099292403183  0.0385365053981099
  0.0530441419672325  0.3149283227216543  0.6337474703292281
  0.7011656912398900  0.2145319642337052  0.9819214741876134
  0.8265743650684093  0.6503685790432727  0.8335624158753101
  0.1875042918821185  0.0514396208386247  0.9831687072520895
  0.5358485016382779  0.4491312410591413  0.6975962091298993
  0.5370379689812117  0.1185660801624843  0.6271467589833447
  0.1759971255126030  0.1076055000521059  0.6351914271468860
  0.5367076503581576  0.6466454274509590  0.2832770648855149
  0.5066761046201128  0.4864420125950707  0.7012566415248712
  0.0937170991686730  0.9265004226867435  0.0757263543960530
  0.1327000412287396  0.6133771018534300  0.1758712029435935
  0.5362904783098060  0.3975702879965619  0.3368017917712734
  0.8465097587783207  0.0980815582782230  0.7299357766371023
  0.2932657302132160  0.4446996679391342  0.1176956557674294
  0.1403168017093488  0.6577625914006626  0.5464029432883170
  0.3138831765721284  0.5884254759024490  0.5513819685946215
  0.8651112149751745  0.3086834236393123  0.2570014642393439
  0.9880094821661539  0.9842846918299667  0.3816524983576953
  0.6081824327510398  0.2394162527091555  0.6505075743190916
  0.9573801673560582  0.6630497005551919  0.7417564086386998
  0.3963589583205880  0.6904937442052828  0.2072307271260647
  0.6856721127991954  0.4573372510058680  0.4088691290511542
  0.1560496460666244  0.0972318416466609  0.5711263369107292
  0.6657020075145083  0.4666488544045465  0.6897097542385120
  0.7309809972749861  0.1586120642000595  0.1503102063588206
  0.6826484813758075  0.4378285266099388  0.2565079043799783
  0.5457434233675770  0.0260872824386243  0.8240279060656517
  0.7082169081742798  0.4987096119881749  0.2748846105789947
  0.2099426992600493  0.1712690701061124  0.4764243712961512
  0.3319767711449021  0.6474992874974287  0.1245865365114652
  0.2760357536617952  0.7433729549815842  0.0746288708640661
  0.0497231250860217  0.4477234110950590  0.3469708306576002
  0.6070995582482436  0.6550497998947412  0.7566206349435992
  0.4427219275488511  0.5395266995066061  0.5303530113025572
  0.6018210897432295  0.1060260023562260  0.3032811927276673
  0.0948393500796576  0.5052785540494190  0.0705911083811679
  0.4446699470843369  0.8906581891265749  0.7916404425443266
  0.3338850138972758  0.3603208203791742  0.7245859482852315
  0.3616400464415490  0.8502769329901461  0.5857470607736929
  0.4509927796111193  0.4087762793130469  0.9034010614871832
  0.3723319191118912  0.1714592761279793  0.8874598080155819
  0.5251178205334759  0.4442199256701569  0.8745678844508399
  0.8382869889510692  0.3361871138419820  0.7399292837080662
  0.8452866599418004  0.9341111961655872  0.5543224337664275
  0.6007869306264920  0.4915702008380460  0.8221541514229802
  0.5461542266613291  0.4873293179142321  0.7718813627775363
  0.3726932621360057  0.4892203911001125  0.3189665228236551
  0.7461845925384230  0.5694271457347682  0.3370105826384333
  0.1216633153945103  0.6754407644014953  0.6864759166691643
  0.4179680309438837  0.6844522169620644  0.8146601756893047
  0.6948120577771212  0.9586961531748648  0.2081351647675402
  0.8259576759534549  0.7991505077633061  0.8053172499361341
  0.5093239050337770  0.9740222817870273  0.7362947732616392
  0.5653789641928104  0.5513004783310922  0.4157155774897099
  0.5679101530822011  0.0984539814455733  0.5950334126190474
  0.8688710148395692  0.8152119109561806  0.3147557331964279
  0.1236674619076646  0.8402315820220922  0.1858037599157154
  0.8309608354877153  0.0135414911425398  0.7955621056104117
  0.3652727319232076  0.9335189392320201  0.9837723609044133
  0.5222687898209774  0.8989335477344952  0.6189706561123102
  0.1563762216496946  0.5593009004100480  0.8681409544439092
  0.1779212156631173  0.2282502430187668  0.8807896735201470
  0.4655866504210642  0.7234375612716729  0.7883244443162285
  0.8967091763912453  0.8171629845143399  0.0003384660054257
  0.7454051463614836  0.5538533433326281  0.5658500285680939
  0.2753762709852342  0.6851969515642281  0.8121222083593461
  0.1016151276886671  0.4747060366122129  0.0218403519912544
  0.7699833249301933  0.7442776905764913  0.8070424747931770
  0.5172734515642954  0.5995413735500685  0.3483389210827493
  0.5935210754888482  0.9459371913289527  0.0123398158560765
  0.4207514746572619  0.0518127888895539  0.5473847370894592
  0.2555988484603137  0.3837465523188204  0.0086042817381446
  0.1433493065583701  0.1086736351710850  0.2348243992650630
  0.6715191013354103  0.0521994486443055  0.9996465003655576
  0.0754512735458952  0.6081591923833787  0.2032066984341521
  0.2273387103612024  0.0167108311050013  0.4026019020835354
  0.9208596428089622  0.8797368550697587  0.6519518290901811
  0.9669475265315451  0.8214879275500303  0.2630801797952378
  0.4327852178507769  0.3690390495189174  0.8452163429319542
  0.8443912353916293  0.3799191542696426  0.5859273970881396
  0.9056835337495859  0.9428658128681586  0.2154369791599544
  0.9763322402534909  0.4459741637425972  0.5922958909783071
  0.4669135487843013  0.9665651033021485  0.0589671675440959
  0.7644609815414538  0.3678899176217799  0.9317557998008122
  0.8803813283422053  0.0409839181624884  0.1746901155409220
  0.6857384819260736  0.7507944535430349  0.1642377415632789
  0.9226990583186473  0.3529099364087226  0.4993382937287493
  0.9538223054298980  0.9106401380601662  0.9567429194543268
  0.5220919544593514  0.0429647684417134  0.5967894756562560
  0.6176890094264901  0.4380513957767395  0.4870094276612822
  0.2124962160347169  0.9257492075974433  0.1281883558798241
  0.0511617140863894  0.2653430429974266  0.3012392806170637
  0.5202336933951206  0.3041429857842520  0.3266423991272931
  0.1011315027140348  0.6840393279942916  0.1005979984727518
  0.8240868263567410  0.7765919320420125  0.7094031352736454
  0.4630693163662408  0.1746445845321630  0.6373272318326074
  0.8099782844426150  0.3436969555958878  0.9239438332673129
  0.9509267194937197  0.5987246087058271  0.9610225735684214
  0.6390745052435851  0.7006231180410342  0.7134573131284131
  0.2932887657378929  0.8755489706125821  0.7896094429781538
  0.5486947265954557  0.2146568625877938  0.5830655171339054
  0.6755892196987660  0.4388340077088893  0.8957955021933914
  0.0261830814501517  0.7840258701592304  0.0039893342843755
  0.7393448480520772  0.1249692390722040  0.4172999821061656
  0.4499413019511728  0.3024226585367402  0.0443940510528674
  0.7772652323089617  0.2006304068440603  0.4508948274204965
  0.3383949115256020  0.8035728815711140  0.7859556400470337
  0.7415109694994590  0.5251765546036705  0.9089975207920210
  0.0223704297680745  0.4622723654251975  0.2521749166016360
  0.7591491422521058  0.5055257064208912  0.7926217521711426
  0.7466461224038967  0.9130286817442014  0.8205537690537574
  0.9567877614457754  0.9517735031461899  0.7011174972723365
  0.2053424844977839  0.6345870286109832  0.6696840061504827
  0.4303482567341145  0.4663724281084243  0.9939259434564786
  0.4931834696931833  0.7741171308395430  0.1813310692221542
  0.1520604779262033  0.5558982722217262  0.2435907106398228
  0.0649584896340978  0.6738486502399982  0.5443526512374510
  0.8566528384719235  0.0924713651823996  0.4892415457937528
  0.0847562242031099  0.1689769143571843  0.4221072000150017
  0.5026108652441987  0.2309577272291887  0.6472395465934734
  0.7017507972910999  0.7497978738028519  0.4969708674941753
  0.6884237127395765  0.1115805526487072  0.7228388983393274
  0.3493259290689437  0.8928205861560623  0.5423635513725900
  0.6459484398862014  0.0315162360486616  0.3473027880245279
  0.3822496342787042  0.0569658515885413  0.7189567141029229
  0.9059215240530379  0.4881849656812910  0.7886456381154414
  0.4548367885641061  0.2150315576500597  0.5459148955674351
  0.2002542778809051  0.4640841085099273  0.2454829756394295
  0.1574493567996969  0.8528516975689011  0.0882152400783528
  0.8652227240469328  0.5262056857562505  0.1249831497730396
  0.9676972518536874  0.7188977193234757  0.2457313384467174
  0.8890817920085922  0.3101087025012299  0.8863813655700801
  0.4441431281731745  0.1451006395848528  0.7243830419983447
  0.9751732014047543  0.0255012289886125  0.3499921156977146
  0.5046042481896382  0.6316265633150843  0.2126440754251245
  0.7653542459292462  0.4602366358482987  0.8524805965699034
  0.8871704207451874  0.5102045808890863  0.1694844966499222
  0.8659098046600913  0.6732113278499088  0.9156502995000682
  0.2941781567310750  0.1467517764589314  0.7977350799867191
  0.9120431262809860  0.6552422778115237  0.3305173579929824
  0.7251060260000052  0.1661466733329630  0.6817425539671742
  0.2697686011825342  0.3352440912311205  0.9987563644887967
  0.0670612773551853  0.9344787217234064  0.3582237868837336
  0.8524738926176935  0.6683623592164766  0.7579130824413131
  0.3051503290921498  0.2227902836297586  0.6777464770315591
  0.7378861425395574  0.7719089234699547  0.0819194840696629
  0.7929527784335967  0.2834812747186647  0.6055645394130675
  0.9355331044293106  0.9675914783854866  0.0777127307803287
  0.8327844594655281  0.7010394334732700  0.1416599478456502
  0.8261707871453724  0.5345880468902768  0.8062661571272688
  0.5321269143014798  0.1457618168715557  0.8396956382870884
  0.2489817682977846  0.3034035584775878  0.8758096798651900
  0.8402750832230990  0.8491591606916794  0.8883818249095190
  0.0224983309340905  0.7606211066923299  0.4031668217897577
  0.7611928793274776  0.2431944698200378  0.4056652358016775
  0.7986210445154385  0.9379250000894506  0.6654566428636254
  0.0804986372650396  0.8402386584160916  0.0160882387876843
  0.2043867243777236  0.9049367879617591  0.0229095858135123
  0.0544485035671507  0.2337723443203430  0.0951312978873547
  0.3071313655922694  0.1898701724832663  0.1437022975753564
  0.2631580201292308  0.0206572883193377  0.1808698000659331
  0.2342228871530283  0.1706799230614871  0.7363043077714488
  0.1016561800849081  0.8545720061943235  0.2293860973661107
  0.6766522430541850  0.8546523046441267  0.0909527430970036
  0.2330865672534475  0.2568491541695525  0.8585208575110377
  0.1208930871518593  0.2040605957248006  0.4282081317236357
  0.3827393952318174  0.0313667588642311  0.0265490264581270
  0.7559633496735960  0.8395810007042989  0.0411274711947056
  0.3298914323216499  0.6645064693704066  0.2252941539138938
  0.6741357283712983  0.2259740650226056  0.2917185697757042
  0.4849244612798194  0.4080631277746277  0.7415596103971600
  0.7551605886406374  0.2183506285229207  0.3614576244530813
  0.7034912922615101  0.6825850172948870  0.8507719081283116
  0.0852920934497558  0.5087734733131639  0.5687239756363058
  0.3329139836638484  0.6727363900800152  0.4887155462545269
  0.6356320257837933  0.9460538400974052  0.1601513661158141
  0.2895637146924530  0.5504561155502532  0.5188663106093714
  0.3468464723441063  0.8759865897151738  0.1576360432466536
  0.3693175242448815  0.6972925945831480  0.8810579060969016
  0.1706310028324442  0.2352641785300335  0.3065438945356966
  0.3741781875505021  0.6341171560494260  0.4525454894312936
  0.3236914683412038  0.0929534259015162  0.4926668184428724
  0.2339043563126099  0.8115156496610645  0.7440051376749793
  0.3535079289458471  0.8110684215603052  0.1883348184504798
  0.9455258666166954  0.4960484781584488  0.7547424854878123
  0.9969415301372145  0.1290246087406979  0.0243637684860516
  0.1677824935384509  0.4751109925698708  0.1965780539540608
  0.3986206110869610  0.6370171367987199  0.5665597908862292
  0.8057872714744071  0.8559595753250603  0.0430219755005713
  0.0482877437405656  0.7902983858002594  0.6222720918664412
  0.1765003316143151  0.0191164128370227  0.6289922825383767
  0.1495966078902539  0.5935770907339800  0.7265069285468040
  0.5676908593565788  0.9545686042875774  0.7997633234836503
  0.2487450629185061  0.1654271902841232  0.6213741347121019
  0.9616878290927187  0.2530982184197467  0.9052815200820646
  0.6005756816435218  0.7408129390976910  0.7165663082099406
  0.1725644598939629  0.1486639391611389  0.0039987128341859
  0.4853319498416456  0.0788493905330424  0.3737428030986470
  0.5305629939834433  0.3223418510288109  0.1091805563796467
  0.6418124738144727  0.6053476293148978  0.5213344078596309
  0.0218831385695774  0.2343794989254877  0.7018936659615290
  0.1440839945432637  0.3146213189546191  0.1228702316352793
  0.6717112068104033  0.0224655467455751  0.7611011096705597
  0.2915082891413865  0.4853511305938016  0.4426773462666552
  0.7870904701794567  0.0518372955592990  0.5345686799172260
  0.5896741242457249  0.7293754752090691  0.6142542022675607
  0.1847761371523827  0.5425660107293294  0.0246468777845330
  0.1909364919485218  0.8081352934917514  0.2730403533260469
  0.7903716078560632  0.2697713200075971  0.9449441870299483
  0.4449388873004914  0.8455154136888745  0.3330276901421644
  0.1828521401123157  0.8218083764656643  0.4649171490603674
  0.4012418564010382  0.9958310576978208  0.9812699245211675
  0.9896451720170155  0.4903384985961897  0.5547962169667738
  0.5551962194486322  0.6332606889104302  0.3434220563111022
  0.5007162911054975  0.4033138245640495  0.0798540522600562
  0.1130612229157592  0.5111176964242558  0.4425239747377639
  0.5069140204352069  0.8790538713162841  0.4620278573904304
  0.7545061339282340  0.0748219260656222  0.0542964635176567
  0.2385482771188661  0.4751096145352499  0.5764832044124205
  0.8205276981284967  0.8898689849747521  0.8426187104273275
  0.0135658953907929  0.0517793994831306  0.7845639740566130
  0.9178389164315319  0.5524818264430161  0.3693692936536136
  0.4118690731767338  0.9747310385123312  0.8710479370988445
  0.7499296437079557  0.7151352378781972  0.0761249136659772
  0.4827122315389050  0.9941724254327297  0.2732255313837563
  0.3266581906591653  0.0887193679734938  0.5528137838099438
  0.7080960135694275  0.0871761647299948  0.0915952610500556
  0.1928554982686103  0.6205404610106199  0.0194708749990773
  0.4801725509767153  0.7529335357165032  0.5322815893766342
  0.7623477468281725  0.3013560783622320  0.8454747430454675
  0.4490423764481810  0.2448310535311941  0.3949087817250463
  0.3590830473361501  0.3751307819153522  0.2575606483420088
  0.2170618868210117  0.9028799409353990  0.6796443659021862
  0.8890765033351821  0.8423513717108678  0.6705210318280695
  0.0489334227933055  0.4351075041404708  0.2974701510858437
  0.0257718056208793  0.2882445258742574  0.1933956319737453
  0.0399716819005819  0.0883950084190707  0.0433915308661429
  0.9468518338754589  0.9120808918784351  0.2039348407545963
  0.8501650514765984  0.9038503007736056  0.3013257802226611
  0.0139646106207165  0.6720929596445790  0.3268822143955133
  0.1316907146683131  0.6563354689518873  0.5979340637635623
  0.6179247650792055  0.4012337744142073  0.8488442239145292
  0.8380374529521446  0.9935612484562589  0.0840438175482695
  0.1562244888646769  0.7371104952688702  0.7681749710657474
  0.7414692560190418  0.9679137895100677  0.7385460349020868
  0.2168509916577414  0.6024209444893012  0.5458168688884546
  0.5815428633661388  0.9537557873263041  0.7441372055335148
  0.0407302573707457  0.1050787245979202  0.5743740293146441
  0.0279244772641399  0.7355625527036006  0.9053953382929174
  0.8567672525896394  0.9838673335607204  0.5748680361041570
  0.0384571124474073  0.9947651292964441  0.3041990196514732
  0.5569085578197606  0.5156608158602001  0.8126194926366062
  0.9267527147549098  0.0549256480546468  0.9316344582658127
  0.5766435406027743  0.4323158667077249  0.7822318925478571
  0.2868508486981737  0.5274542223669895  0.9117167927850788
  0.8641897194997425  0.7849971238577315  0.4547961551648782
  0.5958240692938491  0.2407907677551724  0.5642197391231791
  0.8315889958097845  0.1540537491391060  0.7691576959713632
  0.1851745940008148  0.2452641847102230  0.6675575125094972
  0.0467025011300836  0.5834582570008696  0.8803958535719935
  0.8019029270756239  0.4312899385545341  0.8250216552482349
  0.9318109956740072  0.4725133973094230  0.9814933895948313
  0.0485287834111686  0.7780187565373563  0.1241937966445009
  0.7949551744703407  0.7772588263101834  0.7576643658143252
  0.6623414652483933  0.5673200190668337  0.7009565279309407
  0.7367054275786756  0.3645141424864767  0.0570365969064454
  0.6315365813787558  0.2928694893934310  0.8849639266078302
  0.9085323409970107  0.4429072545832764  0.1055638207176207
  0.7893630354902603  0.7309056150568035  0.1209665792279605
  0.5338378001496293  0.1043760386737841  0.0696143844438845
  0.7806607841032842  0.7431983542706950  0.3801650030948518
  0.1687955352057271  0.2701082867165928  0.1018734160696436
  0.1026772106285677  0.7741691237133489  0.2581630915585171
  0.0392332415646597  0.7162959899591652  0.3440174045115217
  0.0035626501309158  0.8594679769815832  0.3493928941026849
  0.7399103636651626  0.6343242336843544  0.5897940505019245
  0.6422415267559073  0.7278295438294625  0.6227528769724290
  0.4040607565727710  0.5211710921349615  0.7708076130985813
  0.4044043341235292  0.8744438613349564  0.3003442285086821
  0.6980093215627459  0.8816673698411410  0.9420065151715632
  0.8232644003973003  0.3042073251033777  0.7819936042909733
  0.5650634315087970  0.6822047542278690  0.8919315676046695
  0.6204275739042407  0.9099968566014460  0.5776533047823035
  0.5637123616734253  0.8657249990441712  0.2339540028031422
  0.1401774153696510  0.2146671978474508  0.1325303195052919
  0.1224329197971639  0.8081957035499984  0.5136368554438475
  0.4268850322666509  0.5492837060412757  0.8905412424046910
  0.6379857834046948  0.6490056655589967  0.0250796830769963
  0.1714116594451994  0.9358646521102697  0.6842141521702544
  0.8235241413012554  0.1031073436511917  0.8916567800524209
  0.6905344893370474  0.6493994110187925  0.3019994343093103
  0.0060304278959528  0.7471470566106932  0.4442900564591085
  0.6236992515593954  0.5879870746720994  0.4007983154739943
  0.4011094905890712  0.3209849338573450  0.4265030559674015
  0.6359133683115361  0.9723459957811168  0.6401309736235100
  0.2861277902081553  0.7967429695480095  0.2888811220028573
  0.9956522856388896  0.3290418553557588  0.0444335857488165
  0.0426168379775411  0.7285472391577129  0.6087023614890977
  0.1162850324899262  0.4037746840343023  0.5061945373863671
  0.1790139040070652  0.6310478632626527  0.9189096865761712
  0.2164349369347583  0.5404721802332780  0.3980085774943746
  0.8966871278373104  0.4589744678680663  0.9013354993229502
  0.6689926797009245  0.0331062947970333  0.8980615870170590
  0.3632439670077713  0.3136671603342533  0.5486675011006477
  0.7750206001323661  0.1503792756886722  0.4426366011348905
  0.8862326868077357  0.0811713788693046  0.5870973112371278
  0.0346686997425390  0.9726597407445409  0.5368646345724064
  0.3113256374261349  0.5624195417339219  0.9516943220217549
  0.6421035743170989  0.5071769643385514  0.2385849253909469
  0.1984892762407500  0.3371161326415605  0.6428060740203402
  0.1606000094953732  0.4253949299112814  0.6976400082843374
  0.7295216213672453  0.8571346291707428  0.3927870925831448
  0.4859217859035813  0.8901582232684310  0.5419718915868151
  0.2562819998125936  0.7088622008186630  0.4338987815570229
  0.2378365781034256  0.9512165536942615  0.2056698235865226
  0.4252564560539676  0.6781700178345101  0.4470059019877032
  0.3686636654393410  0.3898373163666028  0.6164102677866276
  0.0649471906813107  0.5430660510758313  0.0413232684989365
  0.9340065400227548  0.0310271710961423  0.1501256428300637
  0.2827468195098894  0.5354189272783381  0.3271302233831013
  0.7474177473032581  0.2268296941675751  0.9548603751854245
  0.4760476464261328  0.2141086841400069  0.2573322670367243
  0.6027420265559772  0.0373818730012947  0.0450894231513633
  0.1313938413179507  0.8846233658355664  0.6293146681513158
  0.2649123140679395  0.1333669634300447  0.3346476257053327
  0.5330078881102207  0.1139332115663298  0.6833803294920566
  0.3681478708051459  0.2333853959232045  0.5563637127259891
  0.0115562739833337  0.8923186836006134  0.9705276604767139
  0.6993313409385413  0.2090598259981823  0.6869716366909087
  0.0567461621435179  0.1391008816883200  0.1780520172195686
  0.4002536566011177  0.8298169177756299  0.7071664733513437
  0.7454689083958355  0.2911537618020188  0.4213675678653533
  0.1235666046710844  0.9884514960818610  0.2518578569062859
  0.1649491984915562  0.4500248778887231  0.8472278265483607
  0.5598257453797265  0.0765911223314309  0.2869247597712880
  0.4035569918083747  0.1286682936807409  0.1117125180857504
  0.5955876804900917  0.2165168741284350  0.4507262602665961
  0.7065194674747289  0.3475531433953893  0.3346719833983620
  0.9872441142888552  0.8225878971309617  0.3887457639701127
  0.0586984787261493  0.9724426816696553  0.8831791110644769
  0.8487295118433817  0.9401564478267000  0.2695863840370508
  0.3338628536108041  0.5478271234469557  0.2179764735012495
  0.8667432548964996  0.8549367011945429  0.9806918948639569
  0.9848856639014069  0.4535249740933413  0.8283379514297645
  0.5135115660258799  0.5857120884896645  0.6576115290108661
  0.3768888561382238  0.9711188000849127  0.5888184392344870
  0.1141372538006744  0.5530127422138625  0.9729369119242419
  0.0544510734154979  0.7270781797634467  0.2282440977292410
  0.5105232048399519  0.5355882765599963  0.8757790651500980
  0.3366437647200142  0.0491862735241561  0.7372293041997015
  0.2882006149872824  0.0023584387486425  0.1395001113534653
  0.7078495315931763  0.1195195311434502  0.2715605489861552
  0.4987647706171909  0.7263481938561449  0.7116266872449587
  0.4536319021310894  0.1411774308853415  0.3111024889279921
  0.6642034507305183  0.2028151876250930  0.0131235893410572
  0.9034283242261704  0.0626507844404606  0.6366085681557045
  0.6985161403498155  0.8395004043010641  0.5787912634257577
  0.1148225187601094  0.8942732581115932  0.7634388522945152
  0.7605206963858967  0.2904002375736243  0.7004439735403136
  0.4646957696607243  0.5804598398866269  0.9082798254637706
  0.7871306194043582  0.5508405872094919  0.2646641747257252
  0.2860437487183682  0.6085744649786040  0.9211371119420948
  0.1315400619644847  0.9157155513015780  0.4678488618501214
  0.6423211548104896  0.3902320674192300  0.4647304067471422
  0.7439475581743319  0.8636834966195360  0.3452759598063967
  0.5733612856007995  0.7375893809217319  0.3540681186413435
  0.5695970164349317  0.6768890415439108  0.3730668957391717
  0.7679494948064204  0.4096162845249494  0.7199632752830629
  0.1833389215311135  0.2586748079551179  0.1561297489844881
  0.9549450684483431  0.2331370703600955  0.1704821564712946
  0.8512621904999301  0.4898891103330517  0.5165258864045318
  0.5708013442052641  0.7328914746780963  0.9670605253704612
  0.6755744710039042  0.4918910221954694  0.4431036803830270
  0.8308853787811747  0.3301837246380022  0.9990703329172942
  0.5448250191589975  0.9216778229320034  0.4725902320505845
  0.2868267889585759  0.1087164939100047  0.5379276579278255
  0.1887770930754395  0.8164171325868077  0.0719248876064649
  0.0626765434457227  0.2579741518387343  0.8803841588998050
  0.2126292336198153  0.2452340169252784  0.1080346367929431
  0.1802264999851232  0.5618948457409592  0.5145615539186685
  0.3362536319455760  0.3364556443721681  0.2190570761091301
  0.7619918414541839  0.3344566003115290  0.1459155142870128
  0.6818050496994422  0.0224028671201735  0.4494598464499640
  0.9900126975748347  0.7967054274156341  0.1469699342370957
  0.9813878395917041  0.9418724361273648  0.8496304485320365
  0.8651141945094900  0.8954129299872791  0.5954799703245857
  0.9626788966944180  0.0910979674617509  0.6990123073017072
  0.4887074642676961  0.8774160957914016  0.8123965489814476
  0.1898756473775710  0.9504384483077639  0.9885748488025234
  0.4926457382375902  0.7195232725530187  0.2102100193544197
  0.0514407241974259  0.8752455795309044  0.0371342038668396
  0.8499654226774587  0.6916182204559593  0.6577812134901346
  0.3522829306562008  0.1345433580661692  0.1924565944900308
  0.8393083733144291  0.7127136213632598  0.5759490856421849
  0.5029660629787874  0.1885260300651781  0.2207520400707810
  0.5808524680210543  0.4121459836471822  0.1502554574157729
  0.3381131220677119  0.4627843239089615  0.2882111364678341
  0.6973544944085528  0.5206326530399684  0.3618601967832867
  0.6035562960402293  0.9771490050977323  0.2721229547102988
  0.2878921959414473  0.3017543862339484  0.7328352359678910
  0.4801884542411243  0.1664858188264269  0.2675360733640954
  0.8956287227600803  0.2970331465122046  0.8372127178536092
  0.6137118897779574  0.5925834160397547  0.7120297437494905
  0.6438328215454677  0.9941931331962225  0.3915538633299517
  0.0944109396003098  0.6952804405715206  0.9683999005336444
  0.3400466163734095  0.3467806618799122  0.0137660083642589
  0.7871563178878298  0.5495853094023641  0.9889154095747872
  0.7069033804712834  0.3530551142182463  0.7739026043688257
  0.3730715512615397  0.3056017471630402  0.8945013414634461
  0.1289403344747925  0.3416065143201202  0.7669415183474806
  0.1351307360122947  0.6928960682355272  0.3788893154776627
  0.8752904960107109  0.4526387116111904  0.8176362090520022
  0.4164701445551149  0.2199063551215896  0.0712774487662699
  0.9178875573292328  0.8765585858153955  0.9096010254676292
  0.9970525177904674  0.3216201705734135  0.5524985490793620
  0.8313330538120813  0.8825797032485525  0.7661898563280333
  0.0699261647768692  0.3329605388875284  0.8854299257747774
  0.8507672898501225  0.3897255093414129  0.0116341818224010
  0.8524268159755083  0.0868382389833914  0.2337105748495644
  0.3363156807476966  0.4043027692475489  0.8803268773525892
  0.8685586851549448  0.6523336564127148  0.3644993193032570
  0.9242894592479131  0.2381516266131127  0.4039286514700567
  0.7240927608676555  0.0266931125476553  0.1335786314100281
  0.2988653925174430  0.3177902771642463  0.4260941521267756
  0.8020776767632291  0.2131173185848761  0.9499627656542916
  0.8898711451371308  0.8489413567332150  0.0960941064682802
  0.7331101724968554  0.1501515089123403  0.5848619901052682
  0.1449398099091279  0.4593299263119076  0.9075431356042587
  0.6899447650076485  0.6252818684552619  0.5894168042134008
  0.9893586897925786  0.1746007108893670  0.8405283436399180
  0.9420530703952431  0.4323340791112285  0.0128319348312692
  0.2707168007342689  0.0175135676964674  0.3328759573571466
  0.4313024525986592  0.5009330522269514  0.6508353230937987
  0.8474500253199403  0.3307997433577356  0.3049680747024874
  0.1699175347185039  0.8153789138545654  0.1577055967508315
  0.9268232552298299  0.6218652364556572  0.1411574028281144
  0.5631294902729520  0.4164617273706736  0.9992840400160747
  0.3392387528879357  0.9409284451678508  0.5300816502147714
  0.4436369425371468  0.2416059310997193  0.9963997763102953
  0.0782620312090064  0.1589707628874689  0.2201521108363514
  0.0662637211962342  0.9563489505294576  0.2137578625964441
  0.1724964706453007  0.3537864409159902  0.3200968091662469
  0.9727185865472723  0.4756423925150434  0.6621709613971877
  0.2039099988872407  0.3796620577023923  0.9961050258781327
  0.9085260839749482  0.4001574548869053  0.3544791454001692
  0.9082845927186755  0.7268807111266857  0.4797422689773754
  0.8821925872526089  0.1110173554857611  0.8760303143812542
  0.1034507349810552  0.7260236480808271  0.8103772440874629
  0.2551456985351023  0.9154777099748416  0.9613729668039265
  0.6097639323215379  0.2469543255507007  0.2052525211835448
  0.6352466230200811  0.4235336520685560  0.5881080810094884
  0.0610684142872796  0.6644162639690042  0.1959453684642500
  0.2188772053469201  0.1890074110780290  0.5405500578114498
  0.9836437195103408  0.2843270900224824  0.7214511057435169
  0.1414841739431241  0.3115357877058263  0.9129888304727314
  0.9488155704544591  0.1202023100539406  0.5736491831040365
  0.3095423675162078  0.6514892563876969  0.3414540366515235
  0.9051045357437228  0.8326164137301330  0.9531542193480009
  0.5559943994475806  0.8760198115227918  0.2982871021509799
  0.5349434680899392  0.0049371820532013  0.0509165030677447
  0.2279506694654309  0.6128793334018438  0.9214231472363845
  0.4377493082413249  0.9876514166297865  0.5091343694071311
  0.2887152550519303  0.6845443590607717  0.4823083184182576
  0.9181681549733967  0.5745325032960508  0.4192426384798835
  0.0314675416124535  0.9898447263277973  0.8280636108076632
  0.8934818937973915  0.7696861163822202  0.5898217601710587
  0.9396740612210176  0.1115872100456934  0.1370264367874089
  0.6171917623934090  0.0463553900378481  0.5849688808988374
  0.8335504977380479  0.5991094900510342  0.8950924065832870
  0.5997073336114429  0.7306544403140053  0.2999005013607435
  0.8665555442346221  0.4917611889876707  0.0550654813244919
  0.4634505477819113  0.5465048061177288  0.9673797824723689
  0.3593931423700377  0.1718399675030552  0.6090098866746381
  0.5904748740930204  0.7382997763909093  0.5097337399788765
  0.5970567771285369  0.7501241328104011  0.4264008206962002
  0.3555245895031267  0.9626876863206487  0.2713114040511095
  0.2840265481204940  0.4224696231203055  0.8454586535601637
  0.7120383843990055  0.0401363384156932  0.5185400888460011
  0.8779095066740514  0.2285783642352632  0.9248534850938408
  0.3606709901496055  0.6973170267645352  0.1384736338486350
  0.9071642878160407  0.0926845136184959  0.7395659294982887
  0.7825569597416799  0.8371106688033026  0.5278989178635806
  0.0151079719978788  0.0288957076850291  0.0617280505960788
  0.3646208098149722  0.4791364551626728  0.4848198796253447
  0.3736357633283620  0.3960852136053497  0.3486324052128278
  0.6491139716313659  0.2427635546696560  0.8038970549046424
  0.8768604871299155  0.5258845664453956  0.8896636205720549
  0.1947231448659350  0.7961141388307194  0.5852101486900365
  0.0747102214619245  0.1245696369652693  0.8899628403056908
  0.9266559543780134  0.2183731612511818  0.1250861206167749
  0.0311757823534123  0.4494575000666906  0.8622360388490573
  0.0492998356812787  0.2654858371794978  0.4468246345687829
  0.6677204930365562  0.8759744481128381  0.9039204688067359
  0.2825259615287516  0.8226065937087916  0.7311707191225267
  0.7506079346948834  0.6151877276127914  0.5046924051611986
  0.7373782064271195  0.3278504140713410  0.7322429790343239
  0.8633653568429968  0.0371196320818278  0.5674982324630806
  0.9929369615288002  0.7420419225144843  0.0161147741013013
  0.1390933676752181  0.3381606456400444  0.8678870981202270
  0.0207289926748496  0.1844209021736151  0.8940840576825577
  0.3844645828446814  0.3584240115897364  0.3143712615371892
  0.5204052400833366  0.6442285781909264  0.8953151267733720
  0.4679239461148725  0.1969453001805380  0.7596504489006918
  0.2552628500999706  0.2122719502112057  0.3070242513336265
  0.8865651283489897  0.3542127005440041  0.7405120806201817
  0.7247271037234292  0.4532555124586816  0.0993434841712923
  0.3252354630235054  0.2020807882825862  0.7801437604111838
  0.5288405996840001  0.2032963079286913  0.3725601886846389
  0.7356075436717651  0.9841888998017227  0.2364424726192841
  0.0652620809032373  0.5573922479717059  0.2472249789990866
  0.0565861145955509  0.0720009215977790  0.9308303564424123
  0.3017954665633236  0.8863904531497424  0.2582941724463104
  0.9300197741318755  0.6545530370359864  0.4865676372106488
  0.1866698174307892  0.9232494527950814  0.8825255502123680
  0.3374471216598357  0.1184724017413955  0.5967170729723889
  0.8793641153268874  0.6125400761758431  0.8196707840593537
  0.4445939317151123  0.4934604918961686  0.5131017683249594
  0.9023327494583542  0.5815640180597790  0.6495841421463546
  0.2709346978031806  0.4258158263775272  0.0143445082292286
  0.7708254158161164  0.9683229540599462  0.4708090291925888
  0.1229101294619731  0.2251591623873113  0.2336742245309151
  0.5222436127560113  0.1261558665464933  0.1395783706844713
  0.6479400351110517  0.6393651588160639  0.9364221229807032
  0.1987740824771346  0.9276393496788502  0.9407125034183338
  0.1977446906153020  0.1789084843585643  0.6456734288688791
  0.0066361759514021  0.7069584273677627  0.9464577159738737
  0.4440338165079738  0.7464391937456840  0.3614587045342706
  0.1141792186792995  0.2353707899922606  0.1834003558042816
  0.9141285023484170  0.8802027052599900  0.3169217429112728
  0.6281411040727911  0.0644953629244518  0.1627877884328109
  0.7337588171173437  0.1465352946688195  0.5243358045081892
  0.4513902494888094  0.7993058904778604  0.3684328260182462
  0.5539006806840659  0.9257945710073970  0.9334450467809953
  0.5142194661350681  0.2099035556279792  0.0682931611624140
  0.7125879595035027  0.6305271151526580  0.7281346481433716
  0.5437135038825934  0.4609740705913894  0.3586659497761565
  0.7405991575105527  0.6675047747521126  0.3079831027205392
  0.1042181792213301  0.6637807292995043  0.9239056952280743
  0.3270751392424431  0.8182115571283286  0.8874924339163368
  0.0093616101102541  0.3555075316691704  0.9239239448757568
  0.0372794421981540  0.7069352614884595  0.0002772490687726
  0.6109171610783592  0.8834413100842425  0.4649150261421675
  0.7182869892771525  0.7173117876956833  0.7011456538716182
  0.5490526059109284  0.7110841885344608  0.8496743966631904
  0.5011478766511003  0.2341309312752156  0.3078393774339944
  0.2921776601474572  0.5834327447382931  0.6169439023825368
  0.9714715769478702  0.1666058940593422  0.1266630577753524
  0.6505935338840944  0.4529101471873342  0.0256932413531582
  0.9576253085418677  0.5400192910173193  0.2497345848867792
  0.3637085881400974  0.3608488683482420  0.6536159734937560
  0.4618814132788226  0.6447718217850033  0.3301493110166580
  0.2513794740498400  0.2627660065237559  0.3410925074065143
  0.8346913614274598  0.4808894641772078  0.1586433865545514
  0.4040742389655488  0.9705700443523522  0.5447878867125904
  0.3103802498099105  0.6189711775308154  0.7711294772930151
  0.2668215996573235  0.3070425196033986  0.1803374690162868
  0.7484847930300030  0.2252687347617645  0.5086181278427886
  0.6381771439961089  0.2626687619725332  0.2453501256531363
  0.9507806478239014  0.3618336416836997  0.4564594057081584
  0.5003925647021165  0.8491299612553875  0.9091224377681991
  0.9867945770490013  0.7977507225418756  0.0361244792592506
  0.9545097584848459  0.8399669248865164  0.5764041722647014
  0.2183856752953070  0.3503026576617495  0.8072288446646129
  0.3887336596119559  0.5170368020512853  0.2150497700535633
  0.1464231617570639  0.1284273424650628  0.4384655882907755
  0.4900768954832873  0.4563587719366517  0.2457315991559700
  0.2329022085676748  0.0542226827991687  0.2553302993080382
  0.7160612026551023  0.6047790224349602  0.0961718071366021
  0.2509377022212960  0.8198029264062469  0.4886605366022266
  0.8684082931603690  0.7602722777123404  0.8674593114808765
  0.3730729292961607  0.4491621909718437  0.8486623233445668
  0.5179171054648052  0.0356990227088453  0.2346546775416153
  0.4746922190218247  0.9876888842738041  0.4121142143625430
  0.7379994393319050  0.5783535325906292  0.4556096052771937
  0.7503602609049059  0.2133788285873312  0.0055309881118364
  0.1558876059550838  0.7133701617496842  0.9634364432941385
  0.0805109743993148  0.9554167287304897  0.0295494221693762
  0.9323336059929491  0.7753330787937061  0.8313001299578948
  0.9489366140360271  0.1847707553685253  0.5361860456320472
  0.7117732058449243  0.1207841665505377  0.3747879864923518
  0.3493124839203449  0.4678123625547564  0.9015622418843612
  0.8116892075349434  0.8017087359266100  0.0711163956254714
  0.4083763140753676  0.8738144347108033  0.6374814972217934
  0.4434805542297610  0.2960860456637487  0.3933507087431040
  0.1203434003148252  0.1164373425597176  0.8011033690420546
  0.9323204960419610  0.5894172138993693  0.2325266196451143
  0.0571358386767640  0.6121394032987637  0.6155352902906966
  0.7115026641290753  0.4256785070897607  0.3106727097250681
  0.9592282980036163  0.7582470882380828  0.3065131680880678
  0.7590140203708970  0.7995147558333782  0.7791036794699944
  0.4969813703526375  0.2458155475353097  0.7370220775880572
  0.9177458059841720  0.6797108840057802  0.7740868140778827
  0.5193675800137784  0.9813457536694974  0.1887976704843060
  0.0349820908862632  0.7333934517219033  0.8547075750056797
  0.6297347080014462  0.5952769523051621  0.2240009429105115
  0.8232939722753817  0.4576909962174778  0.2669537047600378
  0.6038124615030060  0.8290130394173031  0.2403918267324140
  0.2440940098519822  0.7695820561462507  0.4867944542604177
  0.7044845945139460  0.7705521180310255  0.1225795966848900
  0.9021818360452731  0.9399046771770387  0.8296545331554341
  0.9904170948698083  0.7312065480226708  0.6078831012848670
  0.8656611625214613  0.5255961475236534  0.2752142588068279
  0.2224077300457355  0.2300941278299252  0.7881710727873372
  0.7421305636603710  0.4140041702230552  0.7632230595217139
  0.0875916421682043  0.5638199601063945  0.1559091517126029
  0.6851769141959563  0.7191227486526552  0.3424144895381308
  0.1348893564885587  0.1657303020344588  0.3873282505195049
  0.0030135743311924  0.7554699387909460  0.8194645257963619
  0.1088460570975061  0.5832528181098147  0.2751818749932361
  0.8457162343017403  0.2346110459859824  0.2393869042961476
  0.3964674506138517  0.9375220925616347  0.7434589145465870
  0.0593315226911825  0.8546847815681659  0.6843833152310180
  0.9010804511855418  0.5555533166363471  0.0991251681053675
  0.2772218317844451  0.9227082203866676  0.7780079557254626
  0.1783224472028808  0.8697807411544546  0.6869729029929927
  0.5111194841448451  0.8053548665568675  0.4044038871933818
  0.6383404224765994  0.0829456543100168  0.4559111713941030
  0.7531299615162538  0.8543645561176055  0.1906076258484465
  0.3679635493635521  0.0655416124327790  0.8136574879037748
  0.9622544620311724  0.7127821506525167  0.9821759264181587
  0.1719471003837875  0.0014373758003356  0.3138404947430586
  0.3395197229738891  0.4833033339029249  0.9997705979697991
  0.0129084867494468  0.5392355990039800  0.3209826247182505
  0.5824579900869713  0.4417203198445108  0.8296994496352406
  0.0835077807028183  0.6455363702903653  0.4586477991745486
  0.7355283625473300  0.8994417073120068  0.1778198742522107
  0.2887264283056135  0.5077101147601344  0.2087293583984124
  0.1805243603062277  0.6271599434226909  0.5709015310466234
  0.4666090403772554  0.0407114723379909  0.5277193264327127
  0.1327822670648032  0.5588396312538269  0.1807414193811132
  0.8636064011691220  0.3210872436169041  0.6420131454506228
  0.9899726973266488  0.2926682218504177  0.0877831703584237
  0.9544748979333545  0.5295952039935841  0.9529817787994903
  0.7482926875550100  0.1652319376760094  0.7774367789971777
  0.6035776741989431  0.1824372213367904  0.4899859824424849
  0.7040689494769310  0.3656776506366866  0.5392073679163405
  0.6171455051231606  0.2831985727783904  0.7231611349755507
  0.0569761402929746  0.6561332330602215  0.1081176820009435
  0.7823314089939952  0.4581033265225666  0.2387707365996985
  0.1721227625537768  0.9548255891222910  0.8416944588826538
  0.8991206624895097  0.9763551826677201  0.4387905809962406
  0.6227048319815913  0.9576984561093135  0.5581789195193606
  0.8183811671192395  0.2954157621752939  0.8282519918647618
  0.9386379281627963  0.1508838691360499  0.0270772164206269
  0.1963698217495851  0.5210192848615859  0.1413957097070874
  0.0343889563867297  0.0264550850000243  0.4723649420121523
  0.8720260437262712  0.4306011819533231  0.8649931509279221
  0.9185978038216944  0.5154836825451425  0.4435608899237432
  0.8492842266445735  0.4385057002714982  0.3224254642105401
  0.0192409887961874  0.6272369643847471  0.4531380815624713
  0.5185061966431620  0.8517209642961620  0.6455179716659669
  0.2148885958691833  0.0668234825836728  0.4167176693683766
  0.8877425658221246  0.1535522655806701  0.7830984156151675
  0.3623737195225663  0.4302351834068407  0.7780845297573713
  0.2065500711337740  0.4821193414542959  0.8287987364116595
  0.4870355358307220  0.6457584200852292  0.5429436667038214
  0.2532901562959344  0.9819418095093169  0.4981667780800664
  0.1147136726471456  0.3679317055905550  0.5429953988683746
  0.1451550440192452  0.0090128073175781  0.5282947489973971
  0.1821985606381173  0.6339836729120907  0.3486783272854658
  0.1432208141410134  0.0233374027137582  0.4723613665709737
  0.9140104383011647  0.3001007446888358  0.6171692669093268
  0.1430306732964596  0.2108376210138047  0.3708648336591091
  0.6146390463685888  0.0994038942295394  0.1259196546525859
  0.1074686183834420  0.2588845485488409  0.7185885926382407
  0.7532401297975703  0.6303469278149271  0.6872794225857018
  0.9970099849381135  0.5669920095828741  0.9766123164791494
  0.7841852007567528  0.1145092765931010  0.2167392777429990
  0.9755312669411215  0.3584250171825679  0.0970604160020265
  0.4780523143577924  0.6348137711723941  0.1140278024698028
  0.4035264888258196  0.2000763624380897  0.8557448253892693
  0.2437457954009455  0.5118426171232213  0.6944165990850940
  0.1655695561581366  0.5176253345669580  0.4934277170186980
  0.7732736991631778  0.4403682816604865  0.0991376914605374
  0.6977959869057547  0.4025770974603587  0.3970565417922087
  0.9492266717016427  0.0945690038957480  0.2570342391168146
  0.9263013153061088  0.0517717923595813  0.0611144620590215
  0.6722894599326876  0.7610938098114867  0.6279329091124942
  0.7952689939221226  0.9585725769891287  0.6227711638642905
  0.5305051165293644  0.9818399094357261  0.8960538278185468
  0.0623193065923368  0.6210532388663206  0.3061227559822876
  0.2537017789616233  0.5554968172168890  0.7163599009702331
  0.2438114196442448  0.1319469825525819  0.9720653236485950
  0.2546497364261949  0.5837959872155336  0.5132095157346442
  0.6011862254689504  0.0347171800247182  0.7335026516545671
  0.6346831930810165  0.0249332436209109  0.8358307353497140
  0.4930316624198076  0.3088906130067777  0.6256143099965159
  0.9492208616097274  0.9759789419720283  0.4141142267718346
  0.6379916679849680  0.2562144388719892  0.3840588447592657
  0.1372346131256163  0.9766748122114174  0.4843285916608948
  0.7070459511882811  0.1887405379138060  0.0278067670365875
  0.8732447477496761  0.2635043351271413  0.2118579997843329
  0.7454580330955839  0.3571223275356444  0.6126903936820609
  0.6234563822685018  0.1380852236174731  0.0210664389026492
  0.9019049628190038  0.1378758833986737  0.6004703178612892
  0.9471106809191195  0.3596808908965588  0.1457825898123617
  0.4969369380471574  0.1158183722388029  0.2382452398568884
  0.8615731669522124  0.7861704644711826  0.7573591870120583
  0.3924616157033533  0.3225803627507681  0.0341867065284968
  0.2173951477342024  0.4100670135785294  0.1525671849807361
  0.8668106668603882  0.9568063090468895  0.9683308498258824
  0.7088168374087093  0.0809190030017355  0.4950907068527254
  0.4379759390701991  0.7277581094942479  0.5229579188639778
  0.3011061699215180  0.9186490518119215  0.9229527656656137
  0.8556661656833396  0.2944195362548109  0.3473223412184734
  0.7763797891987476  0.7478170793898954  0.6270255664250610
  0.4419002464729891  0.5161129974367589  0.2348595019037177
  0.5802518683914037  0.7912174231598810  0.8745304168068222
  0.7742729604842447  0.2890259087485020  0.3660421221718323
  0.7394744577948025  0.4474948808130587  0.9633372248014317
  0.9529054282326551  0.0451849218816981  0.6478444665478814
  0.3008972114555528  0.8401300543902910  0.1106780144603577
  0.2752203109859063  0.4700012774396518  0.9940317169246793
  0.8034321730630636  0.6697796492020107  0.4461242205395625
  0.8767677491243449  0.3584518329914075  0.0439592345747412
  0.5089483347333059  0.5430235927118352  0.4648326420183434
  0.6729385514833233  0.5293976236242862  0.0217080676509289
  0.7655015839011485  0.0685551274060612  0.1095917507372777
  0.9620255593073826  0.3112459535052843  0.1256513010322498
  0.7409046342662511  0.5607877997660284  0.2236422069789231
  0.6961369821988742  0.9586991327091803  0.9709853914359355
  0.2448338840887938  0.3252935639426580  0.0855224766296585
  0.2094045394963983  0.1369685965775089  0.4294224781781041
  0.6041973428482131  0.7955674687721797  0.0117579640150019
  0.3118627357306860  0.3309958712040546  0.9750796440272470
  0.1874939752445510  0.9731608984164110  0.4752262633037024
  0.9581005442651926  0.1953015283428455  0.8739717541226627
  0.9860319652409446  0.1347054540439781  0.6069130394000921
  0.8271091169896869  0.1829556230635116  0.7184965995162490
  0.4884473881661303  0.3590781683487084  0.1031382563197152
  0.6400637851246951  0.7350472422437317  0.4010745183050429
  0.1182398770212035  0.1881697150052211  0.0856014249779750
  0.9782782486033137  0.3877384579063938  0.2463220683689478
  0.4350680253107901  0.6808890663624940  0.2511678340029908
  0.2707377692070144  0.7339419839893903  0.7043621356535780
  0.7878455586633669  0.5956742732061364  0.2448510350331975
  0.5953186285414004  0.2378326860867259  0.9645000625564207
  0.8011222890849581  0.4291393851739509  0.8771440643083948
  0.4893964443339807  0.2852486972304512  0.1454878207581096
  0.3211106702054599  0.6137765084284252  0.4510677521433335
  0.5064454141757337  0.5927150369681427  0.5178505128728533
  0.6322092857388417  0.5099313948365322  0.1087047061273690
  0.8461155663883776  0.4051856797535949  0.8235154261633826
  0.4124298215349143  0.5630318732799399  0.0718943287576414
  0.6726971347154083  0.1143563054391334  0.0677823013819289
  0.1094932678171051  0.8495260158542778  0.8924735448966623
  0.5239483160704560  0.2945017527798298  0.4277428029519096
  0.3060352880280376  0.8796603555262078  0.3808521581963683
  0.6180170933988075  0.8608250058855857  0.9415180950088918
  0.6044567857987369  0.6232177588140078  0.3295544097463858
  0.3273963702858350  0.4717028522430654  0.2336618780855951
  0.0126942559043999  0.1364492544352693  0.7056424415489562
  0.8923271007850547  0.1582328998363203  0.2217391039232438
  0.2059149647723318  0.7520031761264827  0.9503244066318375
  0.3983222107252619  0.9890498610607750  0.2395364024304287
  0.4051011727115710  0.6014409384087482  0.2534268238105694
  0.9508818775022709  0.2381632281748537  0.7862616382212374
  0.8689248699223220  0.2702967236399598  0.6999472106815589
  0.2860411974921106  0.5433503358937107  0.1741189574347266
  0.9955010742723771  0.4279924506833711  0.0005708147250495
  0.6691595336225935  0.0211136272773712  0.5987208470437538
  0.9847523297407873  0.5604338310893449  0.3567892900875274
  0.4905986864302923  0.9075671953438565  0.3744888412470738
  0.1944094371466898  0.0909125938721020  0.2802323718789342
  0.3380704402386421  0.2836609778820694  0.8350072665532626
  0.8460631265844245  0.1343931243593539  0.9737825037629860
  0.6109332133194840  0.3117152301599784  0.2560559648905826
  0.7083293111063326  0.6765984624597899  0.6725897969916917
  0.0831683931221913  0.1588021957335685  0.1376619621458642
  0.1162433841868221  0.1828134806545719  0.6725272267710658
  0.6928192707385447  0.9542684162052889  0.6412124700916852
  0.2449347413253741  0.8638308345914384  0.7651794217532831
  0.5938157514326530  0.3691567038802014  0.1279226093520141
  0.2029216873547833  0.0682466478384353  0.5366209831537549
  0.5595444400961627  0.9395619562423962  0.1040089507350676
  0.5839990424791363  0.5644251780142341  0.1976152112272032
  0.2125441306709283  0.6375866747831311  0.8481657839508857
  0.7239595756837517  0.5286369485135345  0.3226947023801262
  0.7141191421882476  0.0018652520584917  0.4843248672430003
  0.5110032078181820  0.9789243606196336  0.5837604562688211
  0.2124669048658880  0.9680365463238670  0.8730031075166875
  0.3134954646693216  0.5025541796038460  0.6365293870312695
  0.2572808886918711  0.0208440539101747  0.7169833685257553
  0.7480691479929883  0.6040846419627286  0.8287191828454351
  0.5182992307407703  0.9729237274848958  0.8371843377892541
  0.2197010279630715  0.3267490664557886  0.2063530308050709
  0.9067601884744985  0.5278800350648560  0.0472791108529719
  0.3063657742498970  0.9127723673047091  0.0653064247537925
  0.0730284605617092  0.9716241291048248  0.1603557435477692
  0.6558054842855146  0.7393702485821171  0.1140322997044103
  0.0203455149696365  0.6255127823647145  0.0913751665745862
  0.3308017545433986  0.5241921537100023  0.2856125356145549
  0.7199466643792540  0.6454413231457002  0.6353235694937792
  0.9755913790459371  0.6282900807885670  0.7890440763417841
  0.5952230227340511  0.1856790105383426  0.3128546785705905
  0.8067386367813520  0.6346586119229135  0.9174169398840967
  0.7785676612466328  0.6466638260753573  0.8226702067664279
  0.7421837483479030  0.0236769788430411  0.5619073597850843
  0.1012756656196822  0.1269602849454148  0.0319833129690368
  0.1041593054854644  0.8781442194897565  0.0413020486279832
  0.6002509124031303  0.8474577721091606  0.0246752625044107
  0.6853305836782791  0.8690598428268150  0.3246918469876391
  0.3056128086841866  0.0260322890806523  0.0093631301383073
  0.3813394237894922  0.0841456152003681  0.5525474506863155
  0.6745781147287949  0.1104253778835360  0.1267573227922596
  0.5153395103284504  0.2877667016804956  0.9429183271604696
  0.6778491964770865  0.9409482590710492  0.3943031168870593
  0.6426702817439104  0.8529559812699443  0.5904079090592791
  0.5996831248951293  0.3545156074513554  0.4102482437532708
  0.2608848775336535  0.2537074959430912  0.6989066828102221
  0.2068405384853581  0.4644003860775197  0.9344206952926117
  0.7750894273750546  0.9587418890266080  0.7836474693011596
  0.7984559038260008  0.4039498434078758  0.4914169782858704
  0.1846181473453023  0.1779140647807601  0.9019366948594639
  0.3604788846746125  0.8694184297816876  0.0480629751206387
  0.1718418669561813  0.7485159291636002  0.8363352449976891
  0.3459629286870183  0.6847455521154271  0.3532568659355858
  0.0317752693132170  0.3732555002613440  0.3745348378080696
  0.8352636554811129  0.2660549096116723  0.5666223983510340
  0.6062051765350829  0.7095217952277610  0.6695210256234237
  0.5846133479666382  0.8814623778802332  0.0627233919673118
  0.2352866367699367  0.7817404183625122  0.5418813509878023
  0.3551856302305575  0.6777865517681028  0.7083398139647948
  0.5481190805656976  0.5915470967606385  0.9624914839859718
  0.5927482215315818  0.8662006816976437  0.5502845688620372
  0.8068214678353235  0.6164367856420356  0.5701541893519335
  0.0550191542214080  0.6152292548723139  0.7864707270418289
  0.8566742166306374  0.3624383754172130  0.2616497612366260
  0.1148585525032377  0.2118302528710196  0.8314156614009791
  0.2372853642550548  0.6591060634235298  0.5032614093178132
  0.9812531646406427  0.0651886307268374  0.1551197985840643
  0.2430332583914788  0.5872767164471010  0.1378474754011842
  0.9919498418100688  0.3925285807370946  0.4343772202797372
  0.3631567411406845  0.6921100670830934  0.7962198378105624
  0.9404069521742774  0.4572058535425536  0.8515106836618443
  0.7993213095679431  0.9494229485246775  0.0342927546725174
  0.5439260564118267  0.7029681605240630  0.6125866313995230
  0.8815919876229582  0.8674120858619755  0.8536037320301380
  0.7107828831268039  0.1519065384235831  0.9100166705046441
  0.4968957459852453  0.6899803704427190  0.6407782029651985
  0.2497711772925917  0.1899743630738621  0.3643363760203772
  0.2696215797861528  0.9276973761096449  0.2412346252577373
  0.0726903904939123  0.5194196846201210  0.9941129837231351
  0.8068263840669441  0.1397306341990390  0.9189246587361067
  0.8198079916145833  0.7571223885223326  0.5042659593122901
  0.9657031985130268  0.3236654346601220  0.9455830736755534
  0.2068694027240397  0.3090325319506437  0.7703350589561401
  0.1698333814961800  0.6630158083523529  0.3099428169282135
  0.4090676032807467  0.8447168240039575  0.4994077913666587
  0.9106717956122686  0.0941487126474100  0.0293479521111399
  0.9555039545975764  0.2188440394055705  0.0181294572254550
  0.8443886282991032  0.8843999752502605  0.4451999689948887
  0.3630582302873777  0.5600929351194706  0.6729641754784366
  0.3004339124915792  0.7043516327951158  0.9960921393922180
  0.2535994692020642  0.3786029822299414  0.2092846691064671
  0.6600756783781575  0.0559641042185299  0.4131961950050445
  0.5518204070691500  0.5462834267180857  0.7455724472132997
  0.4998663789419959  0.6830071428190380  0.6924971085906793
  0.0364069786843018  0.8259003944062391  0.8404943769487210
  0.6870653430451317  0.8194351028949961  0.6611322957347981
  0.6436763959939030  0.7280661188541147  0.9939574520318650
  0.6539882663064800  0.2729375966363404  0.4772341342347511
  0.6562971074475751  0.0982239427743258  0.1736949138353600
  0.1280233269229233  0.4074462896829575  0.7897262407233220
  0.9141834002681805  0.9380488742286183  0.9716571274473690
  0.1951506149297645  0.6258701775058609  0.7989674153796175
  0.6810026611082731  0.9223354061554383  0.1700285223717569
  0.6976695801624189  0.7176323855880330  0.6233906835368446
  0.0991330638713036  0.4094207153413146  0.3005502260624212
  0.7071815199996371  0.6830462492069294  0.7344390448015765
  0.7171869452078630  0.2696932562085305  0.2734192383584440
  0.4896374514159272  0.9632672057450170  0.3276360738215184
  0.2207641071847589  0.7226910389489198  0.3480930722575401
  0.0410156921026500  0.6733854816306508  0.2794159422323032
  0.0618319618553325  0.7078522876624181  0.1145811206142840
  0.6324899578713635  0.8955479773801299  0.5246471285999819
  0.8493225881488856  0.0161865785505441  0.4355578235080824
  0.4063459849044155  0.3349312773721700  0.8679632997103464
  0.3433547560797505  0.4719093339711307  0.8075614351825824
  0.3149590119251041  0.2258869508880557  0.2299035307441794
  0.4247174582962903  0.4445659985809043  0.0827464910631139
  0.9107287047176952  0.4067700843700506  0.0590555060810287
  0.1621061082255993  0.1319115819604956  0.1940182987794202
  0.7709638896734303  0.7257549685739251  0.9110915375089672
  0.0905220793448296  0.4877745720735073  0.7280559884374419
  0.7514650722291001  0.6681824698321773  0.7520606811387722
  0.0252273096912855  0.2923003797170776  0.0221101721011364
  0.6404292250084934  0.0758421512039122  0.2139428544332588
  0.9205387469631808  0.8362420600619712  0.3457871734065817
  0.0771949808267390  0.2405446395986211  0.0469644021964176
  0.9001105382774828  0.1373528727048081  0.4103095476718126
  0.6755423665216544  0.9811062735988878  0.1278017333692514
  0.9541686018057191  0.6884350349699754  0.9192693908564123
  0.0329319315177847  0.1279540713721770  0.6596452101579229
  0.0672857014664570  0.3517814750308991  0.0691174493308021
  0.3617820584958623  0.7274622417367170  0.6055461780328482
  0.5514763080998867  0.3393215094535493  0.9339958136992188
  0.9715188025667710  0.7634864503552057  0.5095013363022661
  0.9542537419987850  0.0882587599014489  0.5302607947154919
  0.4245979044818802  0.3389575220927298  0.9802277579059571
  0.2673289026187194  0.9271372981466853  0.3153417703521114
  0.7033765801903624  0.1304390588575876  0.3270101853943648
  0.7889587126836445  0.8745786107743757  0.8060405318912262
  0.9501252992512029  0.8963485782507095  0.4096979982535525
  0.4181868777393586  0.8354684239769470  0.7967708281938596
  0.0891527505507306  0.8989164899005389  0.8842885406668601
  0.5089160812743404  0.2692371639931826  0.4716813623518146
  0.2119213521327166  0.5228220893433692  0.5178611274638524
  0.2913795732589561  0.5991157470730968  0.7165991575757692
  0.9427549741916214  0.7895788282630617  0.5987682961277284
  0.8443529483756749  0.0294213720266444  0.3311073430316339
  0.2587550877828316  0.2652916646525734  0.7933750529344634
  0.9322035493200768  0.6121375038456376  0.6975214228185798
  0.2902647060064471  0.1853932545753950  0.5769717363076287
  0.7535449361580476  0.1805208965975859  0.9163715702694972
  0.6271057158981485  0.7373911674013920  0.5671053808635795
  0.9301528103390634  0.3045215169969491  0.5696336274628335
  0.9205755442119775  0.4838734677941993  0.1422946910763477
  0.3677640695411282  0.7592059768691743  0.8013449347866852
  0.9496096163495447  0.2851095529779165  0.3373609013855804
  0.6214999827927536  0.3312258540090336  0.2185910024538251
  0.1156902895074146  0.7363206952101842  0.4605721314122260
  0.0547353628888996  0.0562157724466990  0.2312616024851926
  0.4370883357976061  0.8218775761501422  0.0467159742118166
  0.7082913220438097  0.4420873612280037  0.0018485892165113
  0.7507829823359201  0.5952693917368365  0.0483567944483277
  0.2491228864918033  0.9030397929514268  0.4264129622985360
  0.9154161081028682  0.3070617375997337  0.0269491965387905
  0.8082287763809006  0.9146362149957814  0.2504833977265373
  0.3259648157797653  0.7209236536813123  0.5575575376378593
  0.5823198514272681  0.4286677621359833  0.3395580844782014
  0.9171111651749666  0.9366318077081578  0.3735915172437766
  0.2419149274303280  0.2904040923461449  0.1350321786037642
  0.6100428167334704  0.3086999041884950  0.3675212002502345
  0.0142314919321037  0.3738978133714119  0.0727170480149915
  0.9085031415607187  0.1609171436790812  0.8495686231949895
  0.4386789601919456  0.6730731519460267  0.0898452501919255
  0.7028971731189956  0.7130445731373559  0.0987684712925762
  0.4122958542232528  0.1450273709738252  0.4882099565253624
  0.2616585322407673  0.5807182400001402  0.0800692211928603
  0.5091099744699228  0.8778421691985206  0.2235066940338355
  0.3989866096334435  0.6020000107788763  0.0315687410299279
  0.0797988470758165  0.8785299946952581  0.0950282711773510
  0.2878862927390847  0.8943663685589531  0.1992713481323051
  0.2203103427305949  0.1473949461851149  0.0229745280227847
  0.7450824627951128  0.3294984689896120  0.2457675770328298
  0.0381880139434923  0.4527606118088741  0.8101837978220279
  0.5723534953627544  0.3752065365753243  0.8550265341541557
  0.5443736569543755  0.8258350681163715  0.6934340976445519
  0.8132189749408884  0.9235057672345739  0.3991850466188571
  0.9339082898787004  0.9517189776682158  0.8757269232995765
  0.8747398035808452  0.8083405834060904  0.7071130651987381
  0.5994004788211235  0.7773005397906007  0.3834147811727875
  0.5102323278023996  0.8748338078884998  0.8673213590420680
  0.0712841387519127  0.5553453078969449  0.9575367418843389
  0.2721766235721571  0.0753315567882021  0.9468507910384485
  0.2747297306608562  0.0376883972495260  0.2878170371883384
  0.9468618153154159  0.4621558283892818  0.3013983132611545
  0.0419182302909994  0.7171872431612946  0.5209825248569682
  0.2347230392320669  0.3502803483985620  0.3088900170999145
  0.5820740770904167  0.4050967778984556  0.6207411326467701
  0.8537641799530288  0.7312574235711083  0.9307273390434534
  0.6687835163919751  0.5499646041207296  0.5231534880476126
  0.9740857458679478  0.1399225813862716  0.7343880202764232
  0.5832871944869800  0.0515997289083825  0.9793621286989411
  0.8037627523953705  0.0123311263235767  0.8456250605516854
  0.9702930966377249  0.6043598764451246  0.0936771454757108
  0.2751667911007638  0.8516317272434122  0.6905570593094875
  0.1468454735021097  0.7606909022836709  0.5644084926220672
  0.5511120600298146  0.7756556133833609  0.1729925817309239
  0.4676210764517000  0.1060702856849904  0.4139998126541187
  0.6581124632176624  0.5548561428506947  0.8019142493060228
  0.7467800524713795  0.9268034413266315  0.4962211794162121
  0.7431903095280430  0.7240350323902922  0.4663757800845293
  0.9835222289986257  0.7265783628820185  0.3712567913983155
  0.6650444242910734  0.9942148837967257  0.5111809370401026
  0.9501256716929924  0.4218951689042736  0.1263430930340447
  0.6165086669073975  0.1021108942656351  0.6552932278483192
  0.1752892254034148  0.1000213561612069  0.7552115386774327
  0.0180995862300614  0.4607434546353683  0.7623184729035225
  0.4404415037162904  0.1013365226080766  0.2369465725812908
  0.5609499981653294  0.8382525008413672  0.6082244069407097
  0.9621279807994786  0.1365890504609356  0.5267753727173776
  0.0416513431602092  0.8246655264091726  0.3660912472438595
  0.7128965647702326  0.8159141127059903  0.0956851095172070
  0.7303109000074260  0.9618925231001948  0.6884169342990086
  0.2478976833591728  0.3334796482536495  0.9246359046004501
  0.2559148466965639  0.8129928282863406  0.9182295333802963
  0.9113897144055927  0.5586217155628256  0.9853375847687129
  0.5097981351642706  0.2926303817646107  0.6707295992301560
  0.2388774597944624  0.8208494133462148  0.0462749705444633
  0.8126378167726466  0.4009737728009994  0.5449641634115322
  0.9400809911201595  0.8643372809367188  0.4771342081026445
  0.8102538168784426  0.2564162278335077  0.7360649766775550
  0.4976467748536506  0.1614139624041044  0.7300650139380379
  0.7577821319081460  0.7606129874613199  0.2438555726183829
  0.5422239974340869  0.7080453614860637  0.2861282930045710
  0.6440703649187725  0.6545352343184514  0.1792746505038520
  0.3927398669642438  0.3185226839431797  0.2109113644881138
  0.1434742980229061  0.4723639364193210  0.6010584406909936
  0.8062952075868450  0.3935997605677024  0.9150440387552179
  0.9373481622459664  0.7185202868140574  0.2856601522973347
  0.0513568968616677  0.4906064704636916  0.4827802021654778
  0.7458532683225374  0.5705655513083697  0.9499249255684844
  0.9835620802700956  0.6431014203593659  0.1365330352158038
  0.5627177558747264  0.5587859251477896  0.0106398646660889
  0.6703418873273490  0.3082492123790940  0.8362568087568331
  0.4744395172676898  0.1910109058180519  0.3242031661157151
  0.8298702514398777  0.9044363751734679  0.0334656312910071
  0.3104726153736915  0.9266464198682037  0.7224217635351549
  0.5006679854054071  0.3417943739587136  0.8176575127223580
  0.6301255484152841  0.6748906678784927  0.1316538894863823
  0.3918805692676483  0.8458990287319973  0.1691093546575090
  0.2476641064909256  0.6825269163757344  0.8618432617379141
  0.8946222360682983  0.9398948447137977  0.3138171426428607
  0.6027349874061567  0.3773615965015596  0.3108717798615236
  0.0008708926387656  0.2972123655012830  0.6311715884251047
  0.6991492169035052  0.0025121838832038  0.8064191562143707
  0.5402038359239866  0.6424805598963698  0.1502566492294991
  0.4473533156888926  0.6692074296367154  0.6570837789952297
  0.5272786160632686  0.6438472722868980  0.0979347231027364
  0.6053856183774207  0.9920849636912777  0.1691133956509245
  0.1318179966498542  0.5426177428938826  0.5379456468662553
  0.4155147568768440  0.5750106813095125  0.3934759236727136
  0.2735843976699710  0.4043731607457531  0.6396793507096353
  0.8563031901199974  0.6140306627055389  0.5613774868512484
  0.7212674174529652  0.6326580780951166  0.4582996405897803
  0.7735060283514305  0.5973062758832826  0.3733566182071769
  0.4192741098110913  0.3873422543307878  0.0756930441335100
  0.4562624957340815  0.3779896078469130  0.6120545238149504
  0.6340025184666364  0.1507374343354869  0.2593361155964471
  0.2793563887901718  0.6702085531667296  0.1616454908425096
  0.5882847301502198  0.3579630776311257  0.2531050154824039
  0.1131107483627100  0.7133312043385088  0.2783238870393974
  0.0434636774962798  0.5406394065967365  0.8258705990630839
  0.5525475996630312  0.3595679293018217  0.3147788990757310
  0.4109441139926601  0.1272966185033684  0.1991624275309834
  0.1308847227028312  0.9877190520587488  0.3747597554047123
  0.6570860881343242  0.6716877429776685  0.6740264539502767
  0.6044475492423588  0.6638541003320239  0.0858881865337542
  0.3298019345596475  0.0294675873971915  0.3463330613373635
  0.6290352623208783  0.4617401461080881  0.1569060200951727
  0.5928090785199762  0.0009559971879884  0.8135613234337414
  0.3210086211551533  0.6583231162937695  0.4351075786288286
  0.4922206331791236  0.6869454167889321  0.3131536003507948
  0.2837254848000004  0.8227017898301724  0.7830323444417209
  0.9893319484720966  0.6001751577431582  0.0490675996034735
  0.7392255177027408  0.7218019459091691  0.5907439632858905
  0.4141628304253565  0.7547957446637021  0.1268968767307627
  0.5340768332900918  0.6024566989010873  0.8774829118484271
  0.2070834263983412  0.1347978475408934  0.2966146522955005
  0.0392812167226619  0.3074708649054332  0.3664565381509419
  0.8456242411797487  0.2802506401487062  0.0429489303546174
  0.8561030399023525  0.7027056635508656  0.3702172691198101
  0.8908336092094010  0.6250464107559781  0.2874142600151487
  0.1046837780133535  0.1244436771520808  0.1828177823572399
  0.9254721853944580  0.0517304420099087  0.8566346633125989
  0.4914329560386374  0.4595584193497289  0.3820605083380266
  0.9909513998609388  0.8509847958551553  0.1461544636280726
  0.9976028377785436  0.6491476403691312  0.4076619707232221
  0.5224582137150865  0.1195966359049089  0.9148144656362073
  0.9452883977317486  0.2829662249680484  0.9919805310135187
  0.7486596916943240  0.2792985485802718  0.0744769006474076
  0.5118149446982659  0.2282652338007917  0.4419244551893027
  0.7775943218741107  0.9365447308177868  0.5441576779606793
  0.2641086591746863  0.7169382285808753  0.1476109065567216
  0.3982968474394010  0.4370297879483062  0.9055527321931347
  0.5481434755029059  0.8383208066655504  0.3825333231897204
  0.2224530189673314  0.4135995867071868  0.6641162993517895
  0.8088757822575156  0.4354164818489900  0.4260278202440764
  0.4367929522144015  0.3411845377726849  0.0825973560595775
  0.9729321446693371  0.5030369386513178  0.2739309733771342
  0.3953267359011556  0.1784873644272447  0.1257346441936817
  0.5413501372635243  0.6836858062477552  0.1916123993079972
  0.4237089976630242  0.6199022820044149  0.8245823229134117
  0.5321992052528102  0.6172842396897269  0.7743272624971450
  0.5367348758529656  0.6989037032759066  0.0782102897334084
  0.0501311490329201  0.8159658821147225  0.0479318057779204
  0.5636147819245920  0.6829091161400574  0.1176092865164583
  0.5509906067622783  0.0788666438989382  0.3966333361868682
  0.0233725356133083  0.5021219236630221  0.7981596636266804
  0.7087754218817236  0.0268100476307335  0.3904642103865878
  0.8700694580296283  0.0468570318840445  0.7096852226849670
  0.2527609165131405  0.5391232333161060  0.2204679973400648
  0.4524982638123927  0.0372762461820484  0.6978873841208832
  0.7240699674301416  0.8519440569280364  0.6487553846764932
  0.4561777652269840  0.2123499395219144  0.8725386726052562
  0.6766145519450937  0.3660842825823969  0.7310551131910846
  0.1200458007029733  0.1505814557140696  0.2544659364031063
  0.6453864997142948  0.6878795752852049  0.5770695395215355
  0.6151389749825538  0.4220773301834886  0.4232903358475151
  0.5850934999215840  0.1364899902559893  0.1500579142906541
  0.5356753162061884  0.0410289510303541  0.6469866586184437
  0.2355050925015326  0.5493765557793830  0.1721068034230993
  0.4672358226647035  0.4885338691496382  0.2023898032352844
  0.8898652605568577  0.0325654115527970  0.0142406446890791
  0.6796428016466708  0.5425890648760958  0.2369539096845428
  0.7973612974068374  0.7206642852191464  0.4764778166929358
  0.2733863889926154  0.3021376847015504  0.0459483716837812
  0.9095189392972367  0.7200279311777096  0.4340364732865787
  0.1826491779591606  0.6890214818116273  0.9169925052208511
  0.4917788054843112  0.8503323523284148  0.0464619689114186
  0.8931933258989336  0.4959466153290370  0.8366959176265826
  0.8983293726636660  0.0320109853939922  0.2760030905168613
  0.3305135963309090  0.6850761314477338  0.8436960355474612
  0.5456379850969866  0.9516289212435293  0.0411964008588862
  0.0779077226791899  0.3804570347019515  0.0247339476916205
  0.4636301019686002  0.4119761501911977  0.6514170771689035
  0.8305589707969097  0.6743674616526878  0.4813541970420708
  0.8653133763784824  0.8590269314145285  0.2514948565162084
  0.8213669584568203  0.6361626063570291  0.6143208321036914
  0.7981655482069536  0.9575043394486576  0.3600738542285967
  0.6204787101619308  0.9015919627391584  0.0173799216158493
  0.2936515240408072  0.2655425973082084  0.4306709030563063
  0.2236989112413653  0.4893791630349507  0.4163232907575388
  0.3305707289014091  0.3903244702271900  0.1618122330316418
  0.1595017159024943  0.2127011521293561  0.0030644024514958
  0.9092806510403532  0.9241756410370604  0.7196102749550318
  0.4900246791444077  0.6801382982033413  0.4833838930619808
  0.8270792471581740  0.8845009069751987  0.9581923139221108
  0.1100748636044495  0.1390573897983582  0.0996511210893696
  0.0147158548070313  0.6049265466277572  0.4989321459573652
  0.1333137601204232  0.1346095968384211  0.9376365811677084
  0.4802535570659184  0.4358695945300224  0.7839913820495283
  0.6413035693533822  0.5208374960241603  0.9654831599038258
  0.2115849813305840  0.3208942070374374  0.3432951653934401
  0.8730752867354810  0.6628297364343487  0.0000398560133742
  0.6829666956407049  0.3384718952434792  0.6456722370551529
  0.0472646880446758  0.2059962688149665  0.6330710415512475
  0.0937220247113383  0.9459281782376484  0.4546009211788539
  0.8080420340676755  0.1828386577195380  0.8939660681236634
  0.4504041726070886  0.2214423050612392  0.2127255656886539
  0.1355769026539540  0.6940801351725141  0.8341890864302213
  0.8344922540468253  0.6650990242574053  0.5587957203668519
  0.2898104760000463  0.4928736353685483  0.2880868340206085
  0.1921324956448603  0.6084283188204279  0.3896249873024432
  0.2176283521606601  0.1733633289102217  0.3360761261887290
  0.7843621106067367  0.7169274277689816  0.8598157631245619
  0.6935102992346712  0.0573120036431690  0.5701924763678879
  0.9224760401751307  0.1642039424708872  0.1238863831914973
  0.3961719180539313  0.9198687241839787  0.2786069800435506
  0.1046648300373157  0.4232333522537307  0.5584564258966722
  0.4982450653442068  0.4139594027199645  0.4747418282681781
  0.4785407345204639  0.1674405547315663  0.5892704718343300
  0.3245233543220965  0.0914378764608831  0.8326465070267196
  0.2523438934415048  0.9643036367566702  0.1410003441255076
  0.4701286525316402  0.2444390771698982  0.7847062468201790
  0.2305584510088198  0.0371329654978897  0.0558936847871915
  0.1883311312767643  0.8141754799445277  0.7135487103435416
  0.3312656307921458  0.5218856589521806  0.3391137614233997
  0.3206655277787214  0.6964194420519854  0.3061343575440286
  0.5330107931561784  0.4801881190435138  0.2209456353129318
  0.1673489712955430  0.3991846369328886  0.5217161979379856
  0.5714777357390657  0.3096318280340312  0.4106968871328300
  0.3248533377475402  0.0390774445086146  0.4104904798931224
  0.5280373917208943  0.9716552652384219  0.2951189260691104
  0.8874641283403394  0.3523358546344802  0.9123995530734798
  0.0440639000286186  0.9651199546707642  0.4607170857566760
  0.6768190969758542  0.2324565261003417  0.5468163164304162
  0.5180024691229448  0.0178674234767335  0.4383836510970988
  0.1292650012936918  0.0885148229427335  0.7336378480241337
  0.3635482891939225  0.8782317433102746  0.8317716412633256
  0.4692833958905066  0.6363456987407178  0.9134230975992181
  0.5933396218490332  0.8048557200706603  0.3405567498924052
  0.6412862880543522  0.0675139803502494  0.0392785258307332
  0.0605339649749559  0.2816552298692204  0.9840814131012906
  0.3748323443094742  0.6584882569832071  0.8432186396617571
  0.2518705757933953  0.9221771928832843  0.0153958054876832
  0.8022440092663928  0.2789813026640270  0.4389548278253836
  0.0531891102782496  0.5777888363494805  0.5800088873679732
  0.0045357314129164  0.1528472891395291  0.0746579911564779
  0.4863789209559397  0.3515152163956285  0.0441673271135460
  0.2942094045972090  0.5738371172309877  0.4163488402642944
  0.5567480354085119  0.7823360272721843  0.6103965619450803
  0.1975860676571796  0.4797159000986831  0.8782488011442312
  0.7242415886067155  0.2429721593159212  0.7721265039633454
  0.6640617738738155  0.9684398262934724  0.5896026154221524
  0.9432205264284212  0.6031102225090174  0.9117386178739399
  0.5095850984607111  0.5688362668358220  0.7752600802029759
  0.9956207770635030  0.6373289450648388  0.2911588642545341
  0.6219973043141925  0.6236796983654499  0.9799287616373948
  0.9273440778281823  0.0028369184981477  0.2043880465460761
  0.8762450643170451  0.6115437199007338  0.7577664893529896
  0.7361408058258848  0.4797817105628771  0.8908588607627252
  0.2990753938204186  0.9733631343080770  0.3372312543986764
  0.5382335816136713  0.2557045846843357  0.7087966510637216
  0.0902641913387768  0.7096422429024657  0.3738934558024754
  0.7154924095542700  0.7990874161241750  0.8282113957097129
  0.3233940735723362  0.7163905156853250  0.3788944924185360
  0.1051443581522642  0.0794938451833995  0.2028815939961501
  0.3033176361567640  0.5456848755182770  0.7494275176874330
  0.4740633138161767  0.3902232405488202  0.2567595819191922
  0.6570153986826885  0.1735208345429758  0.4919363483612443
  0.8779094321856935  0.6833006269491165  0.4195467744451400
  0.9447380777436724  0.9952277764872863  0.9279240441826979
  0.8309936848535439  0.2286167816058439  0.4367473653393740
  0.2017402088882330  0.9870736849260077  0.0914047663858019
  0.5430862001766400  0.1199985285288487  0.5022977534318167
  0.5704800014293354  0.0724613294823621  0.5486736463901734
  0.4725181273201489  0.6726490152362128  0.1448835432657883
  0.8315882509262055  0.6645252404365943  0.4021138171184745
  0.2999006503374593  0.3625350985499305  0.3669535244747704
  0.8318030753503544  0.7758642552738051  0.1078031176655826
  0.1340715301852174  0.8908648943197141  0.5734084367313426
  0.0663687684029457  0.8983722779578095  0.5298191532415741
  0.3222295225851159  0.8670858268544263  0.8656105104380974
  0.0978048805838929  0.2181820613690202  0.6430471928348235
  0.5235058924687805  0.0401180096241304  0.7769741318063356
  0.0291369289210045  0.3344940679555466  0.5870209979144716
  0.7687328143779701  0.4878931202950860  0.9316111434097938
  0.1065731100338683  0.5161222339931369  0.1691038238969358
  0.4442235755996934  0.0384788630479106  0.9565603484891434
  0.9858015727499970  0.0598766191831618  0.5002783740494742
  0.8633482245206824  0.2412404353496525  0.0194730444725008
  0.2422068286828014  0.5104813051386400  0.9594899756048767
  0.7339064530426777  0.0440473496466003  0.8108091275864973
  0.3781889014484422  0.1100457665896495  0.3675181834717400
  0.2536253166622513  0.4107965153115052  0.4904073630830571
  0.6903656987180733  0.5893817574410146  0.4237486254694207
  0.9323083544396251  0.6354285235900434  0.8129825488929522
  0.9901855850534926  0.0894397169494940  0.6426224602181463
  0.1712499452202247  0.3472363816534708  0.5428986757356571
  0.0637621228070146  0.2979600423935834  0.8356690211247392
  0.2844424538667614  0.9725039855881973  0.2335618960872200
  0.4792720612182077  0.5127381161617504  0.0862324065465991
  0.5416780722591261  0.7053963320144944  0.5379087006407429
  0.7439239453648816  0.9832599554905020  0.3101589076544464
  0.0016068974818066  0.7471031829678972  0.1416689888700889
  0.3851033577577496  0.8863754809898071  0.2027386694594526
  0.6093586039220905  0.5470091667889881  0.8725615405311278
  0.1277870405406580  0.0706665231880071  0.3892679273589073
  0.6294488216838721  0.1466292617322952  0.5752586158087425
  0.3849076395973989  0.3824707902132735  0.5705058116453436
  0.5658555034623985  0.9354896032283039  0.8862382734345775
  0.9122620475648185  0.8770238400987638  0.8101178756252970
  0.1524242231998597  0.8871369009841377  0.1970340716810509
  0.5078497804311743  0.1854068673227990  0.5362447797022418
  0.6050220407025696  0.4843834895806581  0.9505618010284264
  0.6265345391698637  0.6774033091667693  0.4390686832804153
  0.7576225033571922  0.4449782171534563  0.5809939214126835
  0.1182148768660874  0.9962528852685404  0.8726416900042152
  0.3363229061184117  0.6392348041897600  0.6791547539257887
  0.8182441085407256  0.9616905106736027  0.3038534867813205
  0.0000991072511820  0.2529654242997219  0.3064491825886421
  0.9291985399861609  0.2254812500468189  0.6766150733635989
  0.4684536700719927  0.6603653636019836  0.7214612361601896
  0.2454142228850988  0.9609955342945080  0.0597151982560963
  0.4836481777557672  0.2192753642419207  0.3714998841542829
  0.3345152598933658  0.0643781787709270  0.2484725845053520
  0.1019779884130735  0.0912630709070096  0.8533430972658880
  0.3553570279420578  0.5676267248804373  0.5328206988668482
  0.5765244337185115  0.9039992030010237  0.5064401255023238
  0.7025480461855748  0.8756230865286806  0.7180541386703946
  0.8498915302264338  0.4094587044038374  0.2496723126195849
  0.3734880901588492  0.5716613495412595  0.2023953712400365
  0.2154916349925547  0.2249035369651294  0.0544772234846389
  0.6767479605940711  0.8761755666791355  0.1379953906578602
  0.0850541869457064  0.5036537022546300  0.8093238297302114
  0.5526532613986953  0.0138794634443670  0.9640538772926717
  0.1899210107875248  0.7307567873177434  0.8949949013228117
  0.1235323679595901  0.7784539920124958  0.7690418665748474
  0.3282543644361673  0.0996070519146341  0.7709933870631538
  0.3299824943391679  0.6512885102631889  0.2817431447536177
  0.3878579744766251  0.0083321961346903  0.7051801667999035
  0.4028802278327837  0.6607568744110427  0.0454620558172202
  0.5177341248136534  0.1931925394659638  0.6191460017067785
  0.0039227955219011  0.7326870041356940  0.5588981791031268
  0.0922804049659090  0.3031570392571575  0.5905320811518783
  0.5001327493098032  0.2653966001267480  0.9866760660716016
  0.7201102408131760  0.6244394796159071  0.9560663416996307
  0.7317456202687059  0.9379426538302700  0.3793501004595576
  0.9611664850758609  0.0103048299988760  0.8399918784864088
  0.6810555478423735  0.3884551848859917  0.3530951889547900
  0.5717835104481958  0.8194104472485352  0.8216764575838447
  0.8230909170117791  0.9086639619253988  0.1259275224853878
  0.9655040166440344  0.0856863417059673  0.9135528563186591
  0.5053926702137033  0.0655666824207306  0.7152421286717664
  0.7921445797505123  0.4253863637501242  0.6804892128573514
  0.7370378691199294  0.8611552872644610  0.8164668163215192
  0.8840583716409863  0.7493814093939005  0.3672877164924347
  0.1631673438604290  0.3909275652168298  0.5805248682230630
  0.1050746463603258  0.1248240985068593  0.4103857492619321
  0.5657160985006113  0.8564891875496436  0.9470996566421521
  0.4253740359268937  0.8705808950948870  0.2455929390777615
  0.0216201993217553  0.6619069746568327  0.1548395082043766
  0.0862249856439446  0.0193415899790374  0.5243410559374203
  0.7340388933430024  0.8674383802523100  0.5367277249706084
  0.0158969154404491  0.3687759566388571  0.5451912411705536
  0.0515681411891156  0.4425293378995319  0.6149066830384802
  0.2906172966485097  0.5771838419067146  0.6724680085265449
  0.4562718067788175  0.3583139922851359  0.8966359543354412
  0.7512194096247856  0.8176934905992180  0.9967012306946680
  0.4345965884937172  0.8562962627027139  0.8829126662083117
  0.6819097058422747  0.3297001834627726  0.0942421024261120
  0.7605460224275786  0.8466931491154408  0.7708251923510427
  0.9686797532942295  0.1765869429524493  0.5902039971795607
  0.8118422811104032  0.6171309054050146  0.1349772806840007
  0.2849041885752194  0.7060695577930857  0.9133891309080212
  0.0782751225379052  0.7865843217876081  0.7249980923694256
  0.3568040387823891  0.9786947875006230  0.9670874901560166
  0.7514600070207638  0.1353245826526533  0.8262817747986254
  0.1580072746002777  0.9108799905725654  0.7340595266181374
  0.6317698044273028  0.7646031053283040  0.6718840942890614
  0.2233435459079714  0.0813971623931078  0.4741203718983188
  0.6344608453327210  0.3481567970477133  0.2746568996689313
  0.2211444633622242  0.4273114408713806  0.0330914297141123
  0.3526296739621692  0.7296743225009156  0.2082337314871155
  0.0207101610868711  0.9345330982246648  0.8957073824660100
  0.0709608360010671  0.8038154901527550  0.9049826727902182
  0.2584293501937876  0.6016794128865266  0.7647184133063145
  0.1614510576063326  0.1629581246852112  0.4957443421931922
  0.0754773258490665  0.1719962068337252  0.7452927434294305
  0.3451479143191872  0.0988406505113697  0.8774874556382583
  0.2608431640532363  0.3432779213385890  0.4532108194439489
  0.1948473728248026  0.2761323464398864  0.8211067706227176
  0.9834645750096203  0.5284857743912008  0.1595500960909425
  0.7647194561433251  0.4079304267650503  0.4390776591275408
  0.8217179475991883  0.8123292115059167  0.4575742729606674
  0.7692990003862766  0.0813431304005048  0.8345763514028808
  0.5653863012960624  0.2159557160842861  0.7308758197136483
  0.6547863345728915  0.5115765447088456  0.3438873105944704
  0.5955264883040867  0.4790058398271163  0.2202517203929371
  0.0591728857664930  0.4865543410387658  0.7736105355175471
  0.9540943369129048  0.1112765842822559  0.0551233960227498
  0.4314580587782872  0.7961861690727970  0.9938583080275163
  0.4285651544229926  0.4130395459884061  0.0099501082914494
  0.2761322347073495  0.5719757648999045  0.8741100045149026
  0.1094353996740709  0.2370313217104778  0.5313372632195097
  0.5651615326761354  0.6349436788685507  0.4672937373629614
  0.6508413566507876  0.9283431901725334  0.3055071283264331
  0.4128553735235282  0.8696719136635803  0.8302554307385163
  0.8362465293634446  0.0161317074000343  0.0333524951141813
  0.2312172632901598  0.6923149100672853  0.3860336801035912
  0.3631043013367314  0.9180381727888823  0.0341430726451027
  0.8595252585287988  0.4371083731658780  0.0609945870135679
  0.3984257495427262  0.2622195785523794  0.3090463122968530
  0.0993805793735205  0.9902357902067090  0.0864318770579783
  0.4179740645008728  0.4204366868568274  0.4051650837226389
  0.8984280697378677  0.0302239468387082  0.4496979484859528
  0.0275649592047937  0.3130371750474160  0.7998130072183616
  0.8426056749646972  0.4032334516258884  0.4442668160914474
  0.7392971755030290  0.7957181587201871  0.3578333189116849
  0.3210565171692753  0.3914963210734833  0.5368006863171596
  0.5192632218243773  0.1664826158270377  0.9740052984414290
  0.3802077221681005  0.9293942209023325  0.5611053063915258
  0.1068556816195163  0.3288284089662309  0.8174298018122945
  0.9929261607169062  0.9988666072584707  0.7976351910987914
  0.8677784940944264  0.1631040660004031  0.1778045668946648
  0.5174498027515950  0.9767057248799409  0.0945940319839984
  0.8175164317725182  0.4193810006046604  0.7265051408262146
  0.2695358995524922  0.8465949734597444  0.2304381709329202
  0.6858399350695169  0.1663928573557827  0.9837159732174922
  0.8143569335843427  0.5887562042114716  0.6250662991475342
  0.9849254406845190  0.6227004744126549  0.3629458273553247
  0.2808115188615130  0.2812289888632961  0.0897394394795456
  0.0935400682751075  0.3171641280278402  0.7234249727391898
  0.2352762456440113  0.2132371331085389  0.4914034586489138
  0.2668163296060030  0.9304865181824015  0.1692152026140679
  0.8772598937049105  0.4627035785290109  0.1868998561020367
  0.2399124382831366  0.7115247871713680  0.7682484910749826
  0.4283024339847218  0.4449190733972932  0.3630586399733460
  0.4887350622042936  0.5505636022506856  0.0372692163432727
  0.1413366404392823  0.0271396446478206  0.3469429347675712
  0.5782889139401614  0.1487685301266583  0.6075390768039615
  0.7377908719298187  0.1753490023106199  0.0773788506826631
  0.1954465757977428  0.2394826963243915  0.3630304088857065
  0.5093905348699077  0.6504172944293314  0.3456328335290378
  0.9396044890947503  0.8601625064305303  0.5344750852955398
  0.6802579265061094  0.5406822001583431  0.1819574045794551
  0.7535112674202823  0.4186190591918246  0.6302775046653757
  0.1442740422773701  0.1386489421989243  0.6582425198905347
  0.9414788396442849  0.3447378931531930  0.7503998142229444
  0.6748536471646226  0.9519000588662414  0.8725485050684973
  0.5538727847940369  0.9177440927519407  0.2260527805948037
  0.0898840865595193  0.9362722524046326  0.7551041264653583
  0.7003944387823182  0.9055439425669041  0.2225844722969142
  0.3239801107280196  0.4378637596032198  0.5208812951785985
  0.7284560654076581  0.6811744312615627  0.4392119243926338
  0.5433399075236064  0.2298805324636815  0.4797761611802145
  0.6584675492197143  0.1411560806597619  0.3509504456661221
  0.1890698695661181  0.9041987573118053  0.2907343364808412
  0.7153368778630000  0.5864257242024100  0.6154422170875157
  0.3993806158024918  0.0935970798020260  0.4961389442691038
  0.6528926915386639  0.1145430198192243  0.2959404023019883
  0.8088665457011373  0.4058415497447983  0.1801734828963965
  0.0140413406126246  0.4629984406937104  0.0713788041437436
  0.2186348016082632  0.7403158037971468  0.2074594622510491
  0.5794004292165654  0.4755162464809602  0.6406707907531241
  0.1372067172355872  0.6079095074077383  0.9520148454257468
  0.3832592867256964  0.5279904640554249  0.1083887265132083
  0.8682326496124693  0.5322889637240651  0.3559179997653119
  0.8161843564684079  0.9301879688439866  0.9913281619751360
  0.7743519181436059  0.8881547843946765  0.6551154241380405
  0.8982052005710668  0.6482309866369620  0.7154065989659830
  0.4601611418975792  0.3319963615830268  0.7759696563002165
  0.4382455869257534  0.1407394858961840  0.5538614998078168
  0.5842210177856423  0.0503632733781885  0.1311357764020478
  0.4676769799642950  0.7147373955587176  0.9401218852286400
  0.9560734180936299  0.8564151461219031  0.7989233927601057
  0.8753041273802044  0.2245880042811160  0.4842298573425142
  0.1706492524801268  0.7653013591951459  0.4048164037193653
  0.1797956034568309  0.7745704669856491  0.1286682191923830
  0.1848321151533355  0.7374255065343783  0.5959250010187873
  0.2613627017274153  0.8605057487836780  0.3989553245231305
  0.8031185770763554  0.4986511758714119  0.4718816243019964
  0.4151099126517229  0.4736586558119504  0.2158366650662917
  0.8243075353611631  0.4936827651561063  0.6414671457873041
  0.9624775546630470  0.2871883554477641  0.0429745357276414
  0.5220695334636271  0.8138609900975247  0.5802453134159096
  0.0717708875820539  0.2642557364373361  0.6153144323095588
  0.2881800934446843  0.2742092432601141  0.6581281057728189
  0.9694749910030414  0.1255697176582730  0.3384191202419156
  0.4009908306349557  0.7984971703762708  0.2589613832900023
  0.1687639148978037  0.0733922058353655  0.7118783834062621
  0.6358567571595413  0.5451571999909988  0.2042547682517251
  0.0063261839209469  0.8629019647685756  0.6639893711899484
  0.5336638698339610  0.2715808470636797  0.8460520278190992
  0.9281821463427798  0.2553062768126193  0.2240123396292684
  0.3126763906859856  0.9259918161790843  0.8298026160109154
  0.2654648128404839  0.6602490872753205  0.4480789440272582
  0.4444097964944133  0.2987351123794970  0.5849455660428184
  0.2627782971028074  0.4847336593510894  0.3639366342477715
  0.6654030857343038  0.8509290040750974  0.6961243191780333
  0.5619931331291923  0.0189027511295853  0.4093779962680658
  0.7027070788296655  0.0090148592390618  0.1751065799498736
  0.6555024656456263  0.1329445120193279  0.4623517327705272
  0.5717016477428769  0.7790727668014709  0.2266553169217594
  0.2217019342326577  0.0960092456065564  0.3609590738737372
  0.9056059913690245  0.4560885281742342  0.5885887916271183
  0.4182008815506415  0.7827113741075818  0.5403191439019972
  0.6864584863934186  0.9479036094888368  0.4916291211291353
  0.5390129160580740  0.9263527122730515  0.7253731412513914
  0.0187449498711608  0.1819477024708402  0.2036677813694785
  0.8200556654045607  0.3309634315241944  0.2495213247181460
  0.4335496546236020  0.4850551883479128  0.0518867977286379
  0.5694045385181492  0.7081234252851303  0.7916922119530589
  0.4578373285965487  0.0554724950230365  0.4711013587531200
  0.6451648968495780  0.6693121602679059  0.2384882953686768
  0.5385206969891504  0.2222440791234557  0.1406935172683224
  0.8242536057900524  0.8697560855079939  0.2689517804720243
  0.0760516543659945  0.1880796027142661  0.0544427353749368
  0.3412463258655530  0.3568666834913730  0.9226312739129693
  0.8880841694313988  0.6406480718039682  0.0374824625453388
  0.8737661662548918  0.6901855858687003  0.1783595424051090
  0.3438311091284439  0.4484423354812145  0.6373521854324998
  0.7239135418785769  0.6025891392014121  0.5460550454128013
  0.7367244221099369  0.9140646658257071  0.9723839103552817
  0.2675285686620381  0.8918090342559438  0.1198584997270641
  0.3470653191395811  0.7010343682649336  0.0596814550299730
  0.3038143803934293  0.4692655186846135  0.5577264399893702
  0.2569069385131841  0.8128505555227745  0.3888608484830496
  0.1861788646639497  0.6644685547962416  0.1362468602558430
  0.0724640483074250  0.2097650631485760  0.4987290162054047
  0.9222384968018262  0.7842231153309177  0.3398688126631310
  0.5218941506249799  0.8729824742415526  0.6910800420702188
  0.1631909008036111  0.8076525344442794  0.6695601320113149
  0.5588371731380165  0.1677656033032998  0.3476252481258248
  0.2505225041144285  0.7637350924938356  0.3205123052265459
  0.1951118437394838  0.2813852468160555  0.4626643604085829
  0.4244920192811424  0.5155172395503710  0.8324786847563981
  0.3773211865674054  0.1394930349594659  0.6825655758334782
  0.3623214286953290  0.0791826980014568  0.3298356777857708
  0.2858825000456303  0.6214796474710502  0.1452977544019138
  0.8083081064820513  0.2028764729215453  0.5713559472739189
  0.6837254340541515  0.9683907384656244  0.4353495913036066
  0.5708964658382870  0.1424137420943421  0.0244976287206986
  0.4208665964143778  0.4646224358723836  0.3146159557928511
  0.5664560286036913  0.5119365096983391  0.9145870526795753
  0.1037736140793653  0.3645013304889200  0.1808281238296948
  0.5587010084197973  0.6328713382637499  0.0527535815052011
  0.4344848559568853  0.4647996064316202  0.8590970249593010
  0.7089664100313483  0.4012090815235674  0.8959450003276725
  0.0547786126916983  0.1680777281449398  0.9429598916641712
  0.1047984714624115  0.9253060018680099  0.6328311890388483
  0.7181351075154188  0.9410439021225772  0.2617337468601447
  0.6063765370024041  0.5416079414701745  0.2506240131241403
  0.3586955588984170  0.2678761313399433  0.0443467649121757
  0.7992045118227749  0.0175142590415390  0.1027179278271983
  0.7557147075349658  0.6403358910960598  0.3626688423965184
  0.8204159655916647  0.9355234209427850  0.7456912561441310
  0.2917356834759290  0.7415906720423991  0.2944695179429538
  0.5517592521273240  0.3948379060525159  0.6760222205231686
  0.1636734550080987  0.8925635268329909  0.9938221811739405
  0.7714493303017860  0.1851069213276736  0.5438041934583220
  0.5913930548365262  0.5581444686538375  0.6274208761403725
  0.8761199238757933  0.7939615742644732  0.6390202032306849
  0.3548438404003887  0.6020894712966998  0.7839800598191293
  0.1347146812893115  0.2072508389826944  0.8959753915776908
  0.1590659590088497  0.4012412977383540  0.3609514760612326
  0.5411758717502455  0.4798352304480196  0.1216624122231709
  0.2993882635456375  0.0048196763776629  0.7545554452211556
  0.4184667677441226  0.8665381139588761  0.9267813182843390
  0.6390246725321581  0.2158688626589887  0.0622508052362141
  0.6365563518168249  0.1531443300886967  0.6757402820885627
  0.6597726597382692  0.3487584395143743  0.0490415985110483
  0.7402249280005234  0.6835128442807393  0.8104892745777263
  0.6675832854813266  0.9171855045561388  0.6669475273467528
  0.6235756381294805  0.0182906151155068  0.1283050325814108
  0.1248542383586698  0.2282858856980162  0.0563338783936528
  0.0374330581419696  0.4079506875983958  0.4470412094693421
  0.1940951148984922  0.3128266337038456  0.9177300889406576
  0.7038666390969073  0.5266494129041891  0.6293314280318406
  0.3594032727867104  0.0958088998569720  0.0025148645911774
  0.9475632721816467  0.1886483027046512  0.7493838675097106
  0.0023421566411007  0.2336448388737283  0.7516381086844739
  0.7412466848056726  0.3654218203715204  0.1080982219174453
  0.2146898981745171  0.8631576833012050  0.4892504099083413
  0.0854359118467480  0.6704163011968790  0.1476401991034610
  0.1670201051954677  0.9927554334006272  0.6700273229919882
  0.5906028450918719  0.4833814721903494  0.8721016494095275
  0.7855746320964370  0.1174142759955076  0.0703310834903482
  0.2941802796492748  0.6754437439358109  0.6429421642502015
  0.4960040830971476  0.2223438749009361  0.4911172371337293
  0.9414777968072745  0.0757439289929922  0.1864799838507118
  0.3355126217613065  0.4594716404127894  0.7306242725290607
  0.4054873203588621  0.4357797615704095  0.5370615073023043
  0.1203879909080658  0.5572258782243632  0.4673351528899472
  0.1566093702098839  0.6003502053841949  0.2207925058712036
  0.1998978138442323  0.9045122788101557  0.8334013720455562
  0.3430311786530852  0.3663255876177750  0.7749464097279098
  0.4388698366090334  0.1012564196902129  0.8814990261523142
  0.5882460706924759  0.3230084473435502  0.3121219365940466
  0.1273750547442244  0.2384751109293306  0.9772634937038059
  0.4492287835637956  0.8135625897358255  0.7409879867387277
  0.8522251015023476  0.1706576510424786  0.8179752055687501
  0.5884051405807456  0.9310045102231543  0.2624606787447732
  0.8846256004863031  0.1984376744308231  0.1461886910285221
  0.7555088217137635  0.1313048463523640  0.1813139741440190
  0.6256426900608711  0.8430824004551800  0.4872027994383594
  0.8426496230958510  0.6330296260242618  0.4481068399172873
  0.7379619716878874  0.0649173348163647  0.7656031115329498
  0.3644985744196781  0.0421810717728518  0.9412696018469776
  0.0550731722474439  0.5512158223123524  0.7599197988028146
  0.2509185959574977  0.3335088849341206  0.7428957825609540
  0.8394267353151129  0.1228546542574360  0.8459347831437836
  0.5858296311184117  0.4632633585385389  0.4372745194481471
  0.7743017874787473  0.6008350873498666  0.9935459783428919
  0.3827973471742542  0.6762169330906878  0.3248852560088952
  0.9031412460948700  0.7295360721086755  0.2374559984608866
  0.0108993308942245  0.5554890704276687  0.8588938952073405
  0.8916028504813099  0.1794977245136369  0.9233446489164622
  0.0087573762634550  0.7786123542613654  0.3508815066908968
  0.5450928420497836  0.1897299481495422  0.6660144116874903
  0.8069204628629566  0.6571488073316659  0.7751547536649223
  0.9519889234772019  0.1434661136145831  0.8115257055893794
  0.5797428521977763  0.8749003259920938  0.3952658789127612
  0.8000113697154172  0.8402884911275188  0.7152873431050044
  0.1516051585275685  0.6446726777806544  0.8389535852658085
  0.1196309377937163  0.6447874643401598  0.5013528686120079
  0.6146568118419451  0.7976547070485580  0.5104869290096605
  0.2740549592488387  0.4284077605227754  0.5359474966659110
  0.9199038082005441  0.1811909938651459  0.5813912423136579
  0.7149335978933945  0.6747937585248805  0.5873612979774827
  0.8696813736850321  0.4139998871424766  0.5125155449483811
  0.4158052614726070  0.9869734980846482  0.9196214228357906
  0.2671602423543716  0.8048510273041134  0.1334919921387596
  0.3770271065304638  0.4936868247716111  0.2558350696652659
  0.2643883257143766  0.9634977472126802  0.4167368501205327
  0.5787286187167739  0.3168176826753033  0.1128929444042456
  0.8705766492584874  0.8754574244207378  0.9346178659759411
  0.9346199516499620  0.7197388418607464  0.8151093404873689
  0.4648974468897059  0.2633607774394018  0.9117881526319356
  0.4149578074249157  0.5875886364457568  0.4512559097353584
  0.5439315685503104  0.7847606978097951  0.0160934145646769
  0.7639628778922570  0.8740411772722141  0.8709873780638816
  0.4357567819120011  0.7169695136911881  0.6240463300629744
  0.5206083698352970  0.0553589049327797  0.1718469321645177
  0.1994839565278068  0.7969605500414002  0.4996946832770642
  0.1900818125301155  0.6795638439873094  0.6864439611636304
  0.0212472873245564  0.5258946968620684  0.9633491429386938
  0.6039543990689615  0.2546009093075993  0.9083785225379721
  0.1158085956418301  0.1675912633016630  0.5750138843089017
  0.0030462558072456  0.8880474466709600  0.3993017326314885
  0.6611634318683951  0.5003761027750232  0.3941189816663603
  0.5304473135636433  0.1245494506202817  0.3843083435140114
  0.4665692263499642  0.6835243154878541  0.8326195422411642
  0.8175390017449582  0.4382034637593679  0.0182916882134126
  0.5166668928660137  0.7420800605537230  0.3832707951769901
  0.6385571835980532  0.1591720676746611  0.6253956121777569
  0.2331675547205612  0.3828679993817110  0.7712432955038678
  0.5069291788160371  0.5499139520373657  0.4132796964542369
  0.1791883557412388  0.6333213224337511  0.4634923729948654
  0.6550643996128874  0.0493755670636389  0.5406979916902154
  0.6385798280588513  0.8948892023429686  0.1616578000436506
  0.1539705921985689  0.6714449109309538  0.6472478148011989
  0.7607515358069915  0.1459491178474650  0.2607818973788734
  0.2151849478010405  0.2574722492832853  0.4253769782170303
  0.6903213036567721  0.0778025032181508  0.7722334692452725
  0.1446123125326288  0.6088058630623830  0.3714638317890650
  0.1235798170435647  0.1054578610285251  0.6303194416108664
  0.4390582921544899  0.1669878889806811  0.4419103024013040
  0.1417489800554158  0.3009233754912609  0.4614441666180203
  0.1484644779608044  0.2640089751297428  0.2679684782816349
  0.2762529617133965  0.3722505778250776  0.9535605533402797
  0.5928107545080287  0.9320454105362808  0.0671326465130867
  0.6088644481558618  0.9526507525370362  0.3951201051963744
  0.0241761811955167  0.7234339858304942  0.2685349994875518
  0.0994031586570053  0.6129598180725416  0.3403326889118782
  0.4987406363892353  0.2274598470532177  0.9049573467485362
  0.2493263141971953  0.7682860332073583  0.0454633826410951
  0.2591226133406508  0.8063337925562311  0.2038258270428273
  0.9371044363389570  0.3176198850455776  0.0810718717342111
  0.7618553042941753  0.5788010958889990  0.6518116420006360
  0.2916239509390970  0.2458948590143709  0.5667904068422503
  0.5446944783117988  0.7903188700986785  0.3691289197227092
  0.5665959922281627  0.0815548821798908  0.6428709533800605
  0.3766547764735608  0.5862284417865438  0.9128166133892944
  0.7133246493630147  0.5769112890052026  0.9133879390942951
  0.7801051009534400  0.5391258031644532  0.1820827126195121
  0.7768773714294391  0.5148042369886675  0.3458002461133910
  0.6662759403120350  0.6935066493051347  0.3047875149229671
  0.0181657598250001  0.6680037722616041  0.6992362193055184
  0.9153767037615456  0.7777015106211115  0.4717799104493003
  0.2475360610037162  0.0024987073098291  0.8682564113986355
  0.7577765452813044  0.9924681318042532  0.8167503934999985
  0.8573382058528506  0.0062411630256417  0.8593435814239101
  0.5394950791986828  0.1812301188751266  0.0222346724080625
  0.7469604632741840  0.8173609000812482  0.8799509346103287
  0.2988818916887152  0.1928993532893168  0.8222167961319640
  0.4810222769193221  0.0272895966955326  0.7518504005044545
  0.0043159994862514  0.6298134421957335  0.6322143509471781
  0.3921958039982302  0.3479119165711566  0.7126923921812617
  0.5755383940809696  0.6031421407703723  0.4166664958665075
  0.7751749400099099  0.2251501492960069  0.1620279140719064
  0.3197087620658296  0.5733130543890670  0.2890068955951511
  0.7920692720206878  0.5412496897129124  0.5899500291233418
  0.3593489335296312  0.5304347250311603  0.4979135921516054
  0.1973574628868215  0.3334973764828268  0.0712315965264675
  0.6455362213136495  0.2072050100205038  0.9513548785748595
  0.9242604832766946  0.6348924308783238  0.3805775196208354
  0.5323440106205443  0.5583051400418018  0.6076951671579157
  0.3126814558943220  0.4324737820264473  0.1904951856722146
  0.7839700038908145  0.3119786396155597  0.9697688475749093
  0.1424195987414811  0.3123000941240252  0.3093061463112556
  0.1814618335344265  0.2049668024647761  0.5107663348400983
  0.0625389960373602  0.2473297841186350  0.6779524373411192
  0.3728586635346959  0.1644953036827660  0.8343478956092384
  0.6189539707201432  0.1475748728135933  0.5222795906328711
  0.4767602020576890  0.0643785838013730  0.7975548926489882
  0.7646491391334788  0.9262468643164927  0.1196691875654918
  0.7707980785887716  0.9381428040479149  0.7132267716607499
  0.0387324027960717  0.7158028770299469  0.3908472295228477
  0.6588322442199337  0.3439078693812475  0.7764247801669120
  0.7160120403388963  0.7290321583675635  0.7601659083372764
  0.2140401176065711  0.5577899785586486  0.9777760480944330
  0.5775508460460286  0.0674311213631438  0.3421844322447938
  0.0055049305712024  0.7383268901531806  0.3159649399542020
  0.5917131313103707  0.3839847660873461  0.4571841029420503
  0.1302571210434463  0.7239132439251453  0.6277747703286981
  0.4370044991508032  0.7769067943308049  0.4232117506299432
  0.9264619122057153  0.1339116688581451  0.1873991701870491
  0.0626019992215663  0.8187239625422400  0.5851495896550736
  0.4852067349120358  0.1241061517804010  0.8256099642988339
  0.2020088139067770  0.9497463769746269  0.3865308898924933
  0.1549974142120543  0.4393076046883410  0.5475135647044264
  0.9954906459022728  0.2853654949756195  0.9230406619279214
  0.4859875591235963  0.7592647481835479  0.6810405756824381
  0.6397547329278179  0.3894764202726356  0.8016159979210397
  0.8085985365894565  0.6511649340774528  0.9654580573272176
  0.9640418846670518  0.8523150834386763  0.6930885461523096
  0.2860978086441054  0.6245422363056135  0.6478545224761963
  0.8048877500645522  0.7490519473869619  0.2252758111557639
  0.0266416573866830  0.2617014375349108  0.3752330171865534
  0.9613276033939727  0.8604409439123155  0.1897719968275700
  0.9417577240562174  0.7065637135593144  0.2004028449107126
  0.7372484477076788  0.8059267136803734  0.6668128523956913
  0.1734691023784226  0.3084612621119115  0.2251936877411924
  0.7346989346822478  0.5404399640184915  0.1692802868167724
  0.2647208976102569  0.3150524948142535  0.6857785566626172
  0.0439958176695090  0.9863859339176280  0.0461599279312277
  0.7130607371110176  0.5252369646619177  0.4383114718783053
  0.4231978213070182  0.2867069558128236  0.8865412920744655
  0.6764543274872767  0.0866869438174762  0.8520423070720906
  0.5438427411835290  0.6415624163970428  0.9834296399697708
  0.1307388558759972  0.7445313979234577  0.3730724823660133
  0.6762979019357120  0.4830104456797095  0.9721202960567162
  0.9709548512092013  0.2204960422068096  0.6414614101837468
  0.6661728484247180  0.0343729669951568  0.7020941886209634
  0.7526221743805316  0.1053049643629154  0.0064033672443456
  0.6719497930207186  0.3359169073237434  0.3031243388680447
  0.4612604410832897  0.7692814211338149  0.2182888218079632
  0.9033998696734570  0.0219134623145214  0.3243731485484155
  0.6554637316995245  0.3143422110776129  0.5839808673198116
  0.1818459513739653  0.5230246231884664  0.8014746190177682
  0.4445766131719033  0.8705563139367840  0.1874927461866459
  0.7444882691642406  0.6467611823591169  0.9993159955216089
  0.5744722049703405  0.2176281845618549  0.8279525486660523
  0.8634142212057710  0.0195252340421266  0.6573134266025983
  0.7127409585906046  0.8581639837883964  0.2473274004911826
  0.9933502974267204  0.2273685988148050  0.8086074751924029
  0.0526529198005603  0.5707559063069525  0.6585926151726081
  0.8008746897833385  0.5884721428586658  0.3220244188916714
  0.5673581943502513  0.2653472702117367  0.4030097630871509
  0.4794765690047892  0.9320144233793992  0.8241530465069035
  0.6904711742328427  0.4105366626750130  0.7950622142406256
  0.2995995683948762  0.3476303878225191  0.7511690554948534
  0.7405320435000955  0.9050381666168447  0.2916206175850816
  0.6250633941015765  0.7709381167016010  0.0854553905523357
  0.3278645296151608  0.4111357352933269  0.7250851692597966
  0.6174335143589343  0.8289669311237704  0.6214830366913341
  0.8034396218988524  0.3720577274665057  0.0161985513901940
  0.3127326293961910  0.3464796544256870  0.3186671168691244
  0.9193110298484716  0.9843775788122530  0.5706608964064663
  0.9089078368091241  0.5548663105115464  0.1521522103389423
  0.1738241138921166  0.6088991224864587  0.1245240780233761
  0.5294464879870607  0.8909203881463406  0.9574261266728751
  0.1841655188385962  0.4759017609772093  0.3928825121695992
  0.0234590375466668  0.5672283238982736  0.0523972664452441
  0.2818354358290409  0.1396736040500311  0.4947454905580937
  0.6061381742571628  0.6380334559537431  0.2197402088393205
  0.2792084362893169  0.2911664062007703  0.9686145014927197
  0.1554459551701214  0.4059759267424283  0.2793681020844497
  0.5088292650932220  0.8652331524170372  0.4114532046746453
  0.6208288054440042  0.4325735219376593  0.7646426586463425
  0.2918470063267925  0.9023930105398855  0.9843796644862738
  0.8935099759083153  0.5525775812270811  0.2050077151953460
  0.1742918635354740  0.1747419780601015  0.2332851532155768
  0.1616995507682468  0.7339773659593870  0.0823172798339187
  0.0614412331740312  0.3010018303542064  0.5431000550112072
  0.6547302448394019  0.5807303816024759  0.0872178130330989
  0.8496161467673222  0.2390485967967100  0.5277589169949302
  0.2875154152051606  0.2321917199880501  0.6268847089402949
  0.2409381988375222  0.3540287143000209  0.1583917648816059
  0.5584185113225073  0.7275131172851544  0.1504330842162015
  0.1148463084794099  0.8748331374932788  0.9347262465366681
  0.5304930866595655  0.4508991105010752  0.4601479202140541
  0.9333219920137645  0.8235710689667248  0.3004589778240085
  0.5111588884861679  0.5100239466212080  0.7438539263084669
  0.2312598333866928  0.5774884248021185  0.0371085589218755
  0.6919965468256722  0.1830808193710318  0.3424721062829572
  0.3849176210373559  0.6094790143526164  0.4055380096864049
  0.1332880709479966  0.9730595197613257  0.8137762968346061
  0.2138108238189024  0.5115879414276024  0.4563805597813340
  0.4380036114951544  0.0420868905553472  0.3713413356845183
  0.7428557078244102  0.5527559808442228  0.0200214510408838
  0.8589335230137369  0.1364148128807909  0.6942721661591492
  0.2232821488789822  0.2023636950658446  0.9971220899167348
  0.5597951679088135  0.8001811286830438  0.4155264515490324
  0.7011843133293620  0.8611290673624844  0.1853215036646594
  0.5429783410344182  0.5023246064848352  0.4286188232848509
  0.1168524941113614  0.7789179799937797  0.8748586870000344
  0.3735505858911171  0.9589448698018527  0.0695764884918090
  0.4745521436648165  0.8032216689636724  0.4421351455095888
  0.2522199448139792  0.5837943857158391  0.2465126282105146
  0.3160508995192047  0.2360582616692981  0.9119754908520238
  0.5229083841059823  0.6048266577398295  0.2570605893734175
  0.7685914354746988  0.4260404832649172  0.5311918247007335
  0.0268935258023140  0.0330964483672250  0.9619743113171559
  0.2258674721824679  0.0759206339999919  0.1017169998291236
  0.8618246396484421  0.1085931039451634  0.6272015079263924
  0.5046853660113783  0.3480214889456098  0.2025375322710656
  0.1490491929481354  0.3714013733009759  0.8157821938241708
  0.3021769586882468  0.8247627337162163  0.4069603276360965
  0.6290424876915932  0.4589389369213536  0.6549128902929432
  0.2747411460017025  0.7072269578979488  0.0410705248451003
  0.2213014475764731  0.0305703758969168  0.3469446107556237
  0.8722984476510677  0.4801229417303619  0.5634595854309326
  0.0268796826065528  0.5658551682647881  0.1775891838078317
  0.2949351819122903  0.8497964830817688  0.3066374705352933
  0.9816399081947970  0.5128992344798620  0.6062330724251119
  0.0217147972085118  0.0113421653457490  0.0105746896806981
  0.6802940533596852  0.5130309671407869  0.0687994212867994
  0.7577540497972223  0.0905195188075272  0.6073677535808192
  0.7616824913038753  0.5036001451253086  0.5585891641504286
  0.2263493746138240  0.1793387477358146  0.6873846746353973
  0.7288744665139147  0.6886503808126295  0.0253875969986544
  0.5183489889638395  0.9249001892942363  0.4206080845683276
  0.0698471884954185  0.4206980665046562  0.6622563995436851
  0.9408868061757915  0.4120751452188308  0.5756384319456131
  0.4884600511869712  0.0084630622865144  0.4941126374694776
  0.3506908909830615  0.3903802247630691  0.2153464571830311
  0.0506713013601446  0.0202929494665794  0.7707019141187382
  0.9594073680159789  0.6435572891096402  0.9392427736288463
  0.9081496198141826  0.5081839724488386  0.5222006702176889
  0.2535451671891639  0.4356240064140658  0.7126134345219006
  0.6600596633812115  0.3829300854280105  0.6841351200225353
  0.1209615978190268  0.0073442424955149  0.2961825267093031
  0.8506466931987019  0.5780167707246177  0.7880939028485653
  0.9279750687078512  0.1369382891268932  0.7587404991207325
  0.6252345683480031  0.2464799278214018  0.3254393749032237
  0.2726592522650026  0.5381650895685933  0.0105664447505844
  0.4326189225917920  0.0307632285832499  0.0167936272425549
  0.9795466363614296  0.5828092399385919  0.1609703469887027
  0.3010819053389360  0.3816703383194096  0.4909624503260381
  0.3702660217500477  0.6193645133046427  0.2101154563840810
  0.3922839609697906  0.0722904438783224  0.4450560574874493
  0.7520979253177162  0.0664657289673040  0.6528458383615524
  0.9415584676988671  0.5033291192351332  0.0637848603782599
  0.9775746315747039  0.9933628114708456  0.1449844377465475
  0.5634147061953050  0.4008462487322953  0.7360719040948386
  0.1520755431965862  0.3656010766047778  0.7312090061384812
  0.2275125103222445  0.8346514356676319  0.4421142515252012
  0.8872069945289102  0.8432065725477793  0.0456822899583607
  0.7200684528444007  0.6001717685228743  0.1830759403835901
  0.9223576036860889  0.2570216133401526  0.0231690310917972
  0.6300245422019880  0.2550850277676026  0.5347090532276658
  0.3537065521521555  0.3172589517074316  0.9472974232323447
  0.9374594478526510  0.4721779017454958  0.4659292968673488
  0.0227671896786035  0.2758153984770731  0.4876485377719609
  0.5704268912301613  0.5423575923039590  0.3185434289508515
  0.2470377897557142  0.7172009490191460  0.2887941940892020
  0.5964464567681819  0.6294815965613427  0.5259662801739986
  0.6300661811940476  0.7238689978405599  0.3456694818011187
  0.0211510018109415  0.3786370978978540  0.1229178855622381
  0.1568419042411206  0.8623471009906682  0.4609609606404012
  0.1959390741980085  0.7135641294336245  0.7334616085693708
  0.7978984329555674  0.1980329419382389  0.8448670670218176
  0.7032946429966859  0.5005535712876913  0.2245347823494050
  0.8089402146870884  0.1254585530951700  0.0066010517809564
  0.3915169543486183  0.8164332220721116  0.6107781658025403
  0.8101358273195480  0.7468926788685059  0.2818011711844124
  0.2061175358616081  0.6038278061047310  0.7619280049314738
  0.5504516462487800  0.8682783109758547  0.4474852345707122
  0.9842884907362189  0.7296086237692584  0.6552562071344488
  0.2860269702157540  0.0291628275919377  0.6279393151112728
  0.3091964435821761  0.7137737396727212  0.6765222608696705
  0.9984432154322356  0.0518314808118614  0.9976280148435097
  0.9933831467925490  0.3749069443998989  0.4811832090165390
  0.5455595488561306  0.7469188987704825  0.7028044351134251
  0.4080294217926834  0.0366608350079840  0.6544386229182706
  0.0893323326705538  0.5171806763145459  0.3853483872110220
  0.9473106821600487  0.1504806357216682  0.0797610814783673
  0.4522255619341649  0.4390387389605444  0.2274196792062266
  0.6562376657379805  0.7187250553098914  0.8343750093715097
  0.9242004456602370  0.1089186180691337  0.8439895941658975
  0.6407249437893086  0.5811301606192606  0.1442720031585729
  0.5710686456775450  0.9522362248253897  0.5462996651801053
  0.8449309035445276  0.1804551792438393  0.2278135550206487
  0.1707146532583524  0.9465007702447331  0.1005840132835583
  0.1079737984266382  0.5768667449671856  0.8640306123672939
  0.1007052151528868  0.9101631891046097  0.1805240995969751
  0.4848173470211766  0.1350031653883668  0.1798007803977041
  0.4106694009287693  0.6419899795713199  0.3801938300893544
  0.3668389241361598  0.3207364406954308  0.2577126604583687
  0.5907375945312912  0.7054038553386410  0.4583286165609988
  0.9001269257162181  0.8946246196957507  0.4734980216681651
  0.3675606418357362  0.1541784147170763  0.7813325201147178
  0.9450868322353038  0.4614764573211647  0.5590933013566143
  0.7314236070975564  0.8907076493962125  0.7573987403300968
  0.9888378671942258  0.5066761046201128  0.7267816416106949
  0.6822968218382185  0.5989423009317547  0.2334609829843713
  0.4305602133564847  0.4806440995263249  0.9117643908457691
  0.6411091547392946  0.0078063630303891  0.4721246798137848
  0.8853030721012942  0.1548201784755047  0.3479221214761873
  0.0231412096901260  0.0652020293202125  0.5478551683137005
  0.3248442501678778  0.6256051479284956  0.1807181045250942
  0.6565053768962298  0.4310796579202164  0.9769180911882794
  0.2247778006170145  0.2374111378473485  0.2706781598986145
  0.2429414887345608  0.7788577934006062  0.6015720379186310
  0.7162559152226214  0.7947331246754766  0.4669809235040109
  0.6724481201349888  0.5427070544349903  0.1169199153862947
  0.3033682509959488  0.0433863772028815  0.1051018718551338
  0.4120464672010439  0.3366915862457782  0.5791839660485431
  0.5059868638445755  0.5193657922931890  0.7989524432196820
  0.0309834906575246  0.4811510300459314  0.5792849350176601
  0.8433413219871986  0.5219559014736690  0.6799951315794807
  0.2865955212294233  0.8275372760708269  0.6290203646493007
  0.6769603269024096  0.8040278564610938  0.5288957955571951
  0.4628995573986141  0.9279317164835605  0.9839070358554748
  0.1400529360125755  0.5670517120017212  0.7715797594164477
  0.0697888222114910  0.1465577622197675  0.5681136925201299
  0.5891690931792446  0.8064797152493335  0.0657184943496286
  0.6198444417945148  0.5306607599531713  0.2951528555161284
  0.6156390898174136  0.1591609502872463  0.9736106591213385
  0.6007051424095310  0.1144907755472106  0.4847115735529757
  0.9406260224348257  0.5177651119705348  0.1889902228894464
  0.8076439682831222  0.1533885587921219  0.3820474356312172
  0.6295468483628526  0.3352553017289826  0.6663630172024060
  0.2440362255083507  0.9984936440505257  0.2212463261916360
  0.0350976549180039  0.6728172099483236  0.6381263429360293
  0.1817482598925952  0.3307396684970990  0.0144510917583215
  0.1012055162086412  0.0344795109523096  0.7413509685067157
  0.8245464195249097  0.5812530664097757  0.0109286187854415
  0.3340999128097825  0.7969736599923885  0.3012562453405727
  0.9063384353921370  0.5322107881924617  0.9325896969673680
  0.8132416938900442  0.3845919206924909  0.4094198587251989
  0.8274223405346058  0.3599875222218046  0.1656488862592873
  0.0113182301413745  0.7904955564835888  0.9269442243230398
  0.2273952656469288  0.6363725145495575  0.6241219357462306
  0.0332100803571830  0.4140169822206119  0.2419512963710668
  0.6294749670974907  0.4889853058426181  0.4935840308377258
  0.8258419210452971  0.2941187895098383  0.7076553404441623
  0.6536749682732033  0.2816757700339080  0.1114030562029049
  0.5759334058428495  0.6730709172952900  0.5009621399307067
  0.7979348577625747  0.0691836694809645  0.9955745197932546
  0.2616548078228729  0.7600626674732437  0.3821033018996332
  0.5075120502165104  0.7511932642111669  0.0629545758970618
  0.8125702558320422  0.0785395468973627  0.3044080153616174
  0.4292276538780481  0.2194351045254114  0.6623158412532797
  0.6396621438989633  0.6234288215760833  0.7863984733346776
  0.8157938884963593  0.0930900282388380  0.5209258764607944
  0.3374587418436662  0.0039191586860212  0.4874433223459796
  0.7641406816025356  0.3540529975046923  0.7843221848469087
  0.8530119965150762  0.9730201899083608  0.3479680807930041
  0.8001987824238632  0.2567512392231088  0.8615591631409296
  0.0970133207377518  0.5999001467258359  0.0833429379668122
  0.3156319397502639  0.2351671201997055  0.2795364271511870
  0.5829231326378026  0.1750492425363893  0.2668847285406336
  0.5792180444722768  0.2745278858330693  0.5301675352914161
  0.0893738506190316  0.1111358385300266  0.3384282450657570
  0.9941674347127512  0.4470270939255224  0.3493288713590803
  0.0432343278423428  0.2813023971399947  0.0693269478373619
  0.0481873287786102  0.0377977973696515  0.2774872338035999
  0.7394171762475865  0.3863637007732137  0.3550962814452709
  0.8184038860683953  0.0238383439038382  0.9523662814982621
  0.0048223646508603  0.0692211464360269  0.2520755677543029
  0.8885112111871704  0.6226918710073188  0.1753280710820534
  0.0618891596031457  0.1619248035625000  0.2668745236356029
  0.8029007731178910  0.5990132138484641  0.6856590773365649
  0.7748862231347362  0.1793326769346467  0.6034410625505767
  0.9457770413594936  0.3118602031265179  0.1834031118735235
  0.5043413787746517  0.9957677425936160  0.9762132078575857
  0.9633319361280218  0.2633645018572962  0.1243911442376803
  0.2773360038149978  0.0999951176371409  0.8525726641802529
  0.1403377981152285  0.9575457549756432  0.3008377325017793
  0.7151584782458582  0.4554954146245515  0.8521889746487722
  0.5388444606367104  0.0821100159780955  0.2311198511401318
  0.3916882775717606  0.2277839272762987  0.2618103767583219
  0.2862047366818536  0.0094710992672450  0.3836688609615433
  0.4154280524282624  0.0499899191063646  0.8302597510632738
  0.9933630349359193  0.8155472575433922  0.0995903479003777
  0.0800489789816042  0.8240947221226772  0.4012738863949299
  0.5408223872478882  0.7302377524399801  0.8998955648766181
  0.3820987581098020  0.5213588027968392  0.5734896290414404
  0.6457863532194372  0.8275635704611614  0.8912231833211552
  0.0998485897261305  0.9876981208301824  0.7593117503373752
  0.8764953451995485  0.6212378210171670  0.9138574392140628
  0.4371460270307904  0.0849260017928260  0.1021130264948796
  0.4781827807166332  0.5665139805461281  0.2549469822183468
  0.2989028415393712  0.0786336536265094  0.4219751694006453
  0.0155811360137502  0.3487976948789813  0.3303626829178281
  0.3597737406346662  0.2386161360129020  0.6932243384287394
  0.0183890014335903  0.1368049549662738  0.4688179926304227
  0.3086035534975670  0.4558421206863408  0.0364991836325612
  0.6237782837071146  0.1957262795816121  0.7505365003596689
  0.2222951222706984  0.0832023877465224  0.1515519459069022
  0.9394362198942814  0.7189928409564986  0.6356876685871355
  0.3120043008548521  0.0457534403067108  0.9321231018935577
  0.3806675760455218  0.4074336639062955  0.1673254143523609
  0.4258620464035967  0.3430084969481083  0.1660783302646008
  0.4574101006198823  0.0380960743600079  0.1377033031844920
  0.7947499590443593  0.7858930698264078  0.9045295601091857
  0.7589967390718670  0.6922232148987253  0.5133318256182963
  0.8214073311467955  0.1698753929300288  0.5338315431275668
  0.9404873996007962  0.1170520391110985  0.6253886102721153
  0.1298212244841307  0.5592457790252109  0.6521433386583111
  0.3155876936656785  0.8161373543145806  0.1511269060257489
  0.2190159957797549  0.5721374791248793  0.2789320658594631
  0.4201670017570941  0.2400520108437292  0.7620727358108503
  0.0886742187175689  0.6771674045373381  0.2456176319684014
  0.1632453517932271  0.8029476262950025  0.5420045547317490
  0.2490794784012441  0.8189329023861157  0.8251898499603461
  0.1066233803643979  0.1761208320529654  0.3483171704822460
  0.0031339192934350  0.5772418683375093  0.2309331646931752
  0.2970101296096172  0.7737434227480192  0.8192739100885266
  0.2702229056772928  0.2595720947142362  0.8960060062927828
  0.5459545978621894  0.6508938709430986  0.5498141003936169
  0.2420632709950619  0.3070395959353515  0.8173694662424053
  0.9149294756607864  0.1335457727331547  0.8956869726559487
  0.6417608533824564  0.7836190892368043  0.9159314930510950
  0.6897943730130727  0.7626363147266304  0.8502320165103396
  0.3513876923269244  0.0687529917622234  0.0532729376140078
  0.5407912138701121  0.3077075516626222  0.4737707235463928
  0.6835085984443398  0.3800394902118107  0.2943305412892243
  0.0450898607704659  0.2745071966916660  0.7398216480309181
  0.4856198845890614  0.9775119868657202  0.5417070482303445
  0.1599874544842816  0.6479056959780654  0.1957476391182365
  0.0623320115128791  0.5699057706783772  0.7133536253342331
  0.3002260154847139  0.1334617033102335  0.0430663565953054
  0.3200000115451715  0.5351020165597038  0.4518720029434498
  0.2109850520961545  0.5047112134715653  0.3548474903299252
  0.6456858684246464  0.6377640315632623  0.4076753041392840
  0.7212219050662957  0.3080188757544149  0.0310609306165938
  0.0162995541118483  0.3523026328268621  0.6353675921132911
  0.0434978071307596  0.3136275697720359  0.9302381739972030
  0.5865794681730908  0.4371391368576857  0.6742213154945116
  0.8402131089093360  0.7669251309087453  0.5548290290884236
  0.0343815028954185  0.3720299060648345  0.1736045222130629
  0.7278410895249351  0.4547469556044932  0.2132857367620608
  0.6603503914420481  0.0648014774867147  0.1069007843202174
  0.0939029569326482  0.0258422297077400  0.3976461543890707
  0.9053432709307537  0.7870173226120107  0.1551315956777448
  0.7924218254185713  0.8374435572747040  0.6628275762719700
  0.9464292614211607  0.7413535755992418  0.5822874862357658
  0.4179742879659464  0.9274020297706191  0.0627234199004461
  0.2993275369118694  0.3884894867747992  0.7932769517671250
  0.3596372407188365  0.4398888001007617  0.6832125817100930
  0.9648236399830858  0.0461643646440444  0.7681056968929114
  0.5408659629372526  0.0184568044613578  0.1256434331994479
  0.7830324934184366  0.3663503549967727  0.3700377521773001
  0.3625434784901929  0.9853042884727370  0.6482452139133188
  0.8400023068565131  0.3318130084900855  0.5642180631351266
  0.7332479759589483  0.3138072356912616  0.1095295436473965
  0.1173908400959071  0.8070046347073699  0.5693075174320001
  0.9889362663149960  0.3986387862462857  0.8489393455475521
  0.1934622618098761  0.0198071759683743  0.4541876597692915
  0.8155479279386132  0.2092620991340271  0.6232144813262607
  0.4165359177751299  0.8671806505340178  0.0259160080984668
  0.5957343108225941  0.9074585913180561  0.3154514917032804
  0.4533625894731456  0.7555847998388092  0.9724544508302017
  0.0717453660084326  0.6026007221410637  0.9262531958269132
  0.1175581875029472  0.0805020078632340  0.4457619836551534
  0.0903488380464717  0.4313690824347900  0.8131628107190408
  0.5828208601224224  0.9031180057272090  0.7246854647313700
  0.6153717883451326  0.3892225267047745  0.0657255055663148
  0.5362941654835215  0.1244457907592359  0.7404957676698041
  0.5768228713243896  0.4177956648837310  0.0862043058135859
  0.8167081586010762  0.1555708255910758  0.1478713737221663
  0.7139729960300716  0.9355100875267230  0.9176692319522631
  0.4283377414663607  0.0241194024447166  0.7907526158066601
  0.5757673340489383  0.8849844109062494  0.9894845751174091
  0.9145901067022487  0.3154373761594605  0.1356247521128523
  0.7576839562524498  0.7081845802269563  0.7735572018532993
  0.9585167852090706  0.5145186858687041  0.4968704199435634
  0.5283900568513148  0.1644724357568944  0.0779739707624865
  0.0100865732908613  0.8498630011853627  0.4492315023888585
  0.4321890502784206  0.5925539931383890  0.6432569520506359
  0.4015756759769130  0.7071541082839343  0.2920576780249891
  0.3515392761352264  0.7817200830408088  0.6644710874004098
  0.1192149948032700  0.6000638721364736  0.1241065521553247
  0.1940635690789266  0.1407223349517803  0.0826511925202410
  0.2046787559848233  0.7489577196142336  0.7899539516333854
  0.2616335600187853  0.2436084202469106  0.1432320246388755
  0.5163140415146985  0.9216936889522336  0.1385903943496244
  0.0038220264492756  0.7544820741886360  0.6994967050930525
  0.4814829501686802  0.8442317558173912  0.5811776469474141
  0.4715066499083885  0.1519093689811829  0.5158985826985784
  0.3056991406909788  0.9492671933683338  0.5697298664212248
  0.4320905394251138  0.9473076281373755  0.2363052650640545
  0.0297597097869774  0.1124272525017748  0.4135899032206613
  0.6641162248634316  0.7041888757331306  0.1608189494012954
  0.5871748908618681  0.7476664639302459  0.1900100988635588
  0.6978407544088454  0.3282443085078525  0.4322770582732652
  0.3945816288572024  0.2466209342828837  0.1074411042462472
  0.6749108542234804  0.3111450404024356  0.2518620468764171
  0.5001591554326745  0.7419487375787666  0.4810443627174358
  0.0351938659432610  0.1977525677591487  0.5360156907575574
  0.9407003618159979  0.3253619442551991  0.6889286693176989
  0.4574035456443882  0.8549972602295058  0.0094855401156902
  0.7935188899535451  0.8907599402234498  0.3107351123468887
  0.3442021356390839  0.5718112201173301  0.1230373741993352
  0.3816834855145767  0.4003716461600121  0.7493110923840541
  0.4874880153607123  0.0218734062000671  0.1845148878591802
  0.3163441601842096  0.5285109514561670  0.6941564857393493
  0.0954291023421908  0.3415848009637958  0.6203291375392918
  0.0805316262965392  0.1139769269213653  0.6052115018408576
  0.0866157795025590  0.8243547609800640  0.3462079953844697
  0.8479799354979553  0.0034378120076478  0.9882374910296491
  0.0389211004286914  0.5210449088566993  0.1416958884783311
  0.8102538168784426  0.9327944654632019  0.5065545023758606
  0.0700944293218158  0.4238819223858611  0.1235495002819043
  0.9594492304731121  0.3952357111278165  0.3929066463975549
  0.1003077545862414  0.2934161780740602  0.8845463448735104
  0.7030464477882030  0.1209670075360184  0.9995697028685750
  0.5841065664237475  0.1148515785307304  0.3753463884672590
  0.8903343882348360  0.3592935141913625  0.2257813636407494
  0.3235313183717447  0.7251026740239003  0.8692324323520414
  0.8436865010376514  0.3386570360570098  0.8861330213848818
  0.5013254941404841  0.9929234791360223  0.1388242691713031
  0.0597979967214111  0.4160279071743341  0.1824714859814188
  0.0325272642025136  0.6028646343930607  0.9571519350274895
  0.1624824047875597  0.9548051048238716  0.3476744476862098
  0.7650509293359266  0.9849155337329197  0.0453949743954197
  0.1127119842498015  0.3853382567943493  0.5900142753320201
  0.0269341498904972  0.2182164563682750  0.1548085955358531
  0.9846446195752813  0.2799914206632561  0.1603632854940053
  0.2562205469173361  0.6854917764847487  0.5524089023406439
  0.0749989383370982  0.1994118331752818  0.5809814446127373
  0.4375601823006474  0.9428459244766025  0.3130918122579268
  0.1703718392132625  0.1641669962453748  0.5578405561536546
  0.3068331328293755  0.7251332142506343  0.6264885053646889
  0.9419198852113395  0.5279107242683059  0.1241241500298757
  0.4369710166339326  0.6687726410917234  0.7691544184836160
  0.7243964499027645  0.3893686728629507  0.7191182793511819
  0.6181270754592291  0.3710761198862582  0.5753928438296566
  0.8054079767560416  0.5632379080778580  0.4778403577354223
  0.0958375964968483  0.9193969894134743  0.1233391265371393
  0.1812916462587420  0.5804688529779313  0.1722514598141177
  0.2030620979094021  0.4039707373922635  0.3352195473171964
  0.1260825606912868  0.3913923725700507  0.2456399784757678
  0.5295010879533926  0.0675402840516286  0.3392826265307317
  0.4731845746581725  0.0600531146916550  0.2541182619926643
  0.3677209407819110  0.2997244667489648  0.7977185435712680
  0.6614856685046184  0.3027581727227570  0.7327726657472651
  0.6058104627266346  0.7499751560946253  0.0322054442355423
  0.7616109079919449  0.9362571312679814  0.3313143461782045
  0.6588824493731502  0.3754494058662179  0.0901481477882321
  0.7184875119365869  0.0986287125110890  0.8086856134798275
  0.0915720299934393  0.1127191723763377  0.9468090030696733
  0.8461938536525179  0.1445441836182955  0.3148077633144126
  0.1405414865298731  0.0675961596310893  0.0393536892393645
  0.8642331462123914  0.4335417216134869  0.7411578201947122
  0.9235675180832630  0.8483596026581102  0.2573591200897429
  0.6369480116025998  0.7967055763923497  0.4231917877500292
  0.7546109390477821  0.5967889542377507  0.7263443204615345
  0.6136092075766089  0.1066968724404991  0.6064023472184124
  0.2642132780733399  0.2844577239801284  0.2850729233279251
  0.4589105941011773  0.3962611178625021  0.1068114727791098
  0.0878284034137512  0.0827902902175520  0.7686092381922340
  0.3907394448689838  0.0797118539848480  0.8619326477673797
  0.1438850175172555  0.4963942903599436  0.5482349099622134
  0.7055111930623575  0.3419398124774898  0.9516998341602387
  0.6236838697134917  0.2716728774298503  0.0697039287611105
  0.2072286228299543  0.4695720010331436  0.7171237790803741
  0.5742659094631697  0.6140520036200738  0.0083148129961085
  0.2657269001277127  0.1038658120443411  0.1681145998820943
  0.3568416181589437  0.6611010851128429  0.4011860646209801
  0.3457978624859386  0.0917402247055503  0.9327574447493315
  0.6981790060420148  0.4193601811086307  0.5219575402175426
  0.0282788067438070  0.7189421888731348  0.6674146438390681
  0.6561512592428305  0.9967436890586640  0.1779836741512064
  0.1359818027453435  0.2598135487263300  0.3701552948060473
  0.0321949623269307  0.9190116611381198  0.7387598164892253
  0.2411169336522743  0.9390188616250352  0.2744613863515649
  0.7248439014685975  0.8089865464456948  0.6228217042151175
  0.1925200027046829  0.6865115221042347  0.5581430161308587
  0.2515436463906250  0.4757089851069953  0.5208442372205492
  0.4776586433863546  0.5284425711436258  0.8405734835847980
  0.7173940973311494  0.2386124860833655  0.1659187762020048
  0.9436774380157058  0.2839884287033448  0.3907535604128036
  0.6673598948960204  0.9150418785928391  0.3511755122394806
  0.6680282044429914  0.4508070801349045  0.4930921097222337
  0.7674777600359159  0.7231247846569013  0.2869754863430097
  0.8473869336808092  0.3855099897034599  0.7534057174171550
  0.3670117743706388  0.5745937327262346  0.4656784945663401
  0.9160415868440535  0.4987063345004278  0.2829789624772472
  0.8668207972770610  0.3246424984505383  0.9503534570914139
  0.6118142243724038  0.8782317433102746  0.6299477447050056
  0.5674221053613191  0.7922749343768163  0.7086448437903460
  0.6694241162698115  0.9772263985015777  0.0644749624254353
  0.8737014358718873  0.3975692451595514  0.0956055000847142
  0.2367317854013209  0.7076497538173208  0.9092314142357892
  0.8771149393604606  0.7395117764621042  0.7389642870316278
  0.6121940032650955  0.5248749512425822  0.7501099800224025
  0.3401015142931730  0.0784375723354141  0.6536213366555239
  0.7857230129053496  0.1754385000726223  0.0113115983497613
  0.8430982664754102  0.6371226123134893  0.1840276967544140
  0.8397784693410598  0.7715256063802632  0.6047902329328223
  0.3995081026270170  0.0878458709336759  0.2715289100561423
  0.2232983314747334  0.2761203724363559  0.7256410013863565
  0.4559183222764602  0.2599787452820360  0.0895966080532955
  0.0627122699243747  0.4761978521998139  0.1619091237631646
  0.8261262431073554  0.2239464919208954  0.0555297905368194
  0.6949646099340757  0.0820607884845763  0.3448134988364492
  0.9943012902918758  0.7095202309722453  0.8379882161475807
  0.0744151730763303  0.9814002046591135  0.3910939722083515
  0.7310957093461335  0.0379536316698755  0.4472089572513058
  0.4584861221937528  0.9095781575417576  0.8785739428264120
  0.8550175955512093  0.6371094278741430  0.5103245071452859
  0.2998927545715231  0.6231218178090481  0.9677040302942553
  0.7625566866720482  0.1792229183392988  0.4876952419723566
  0.5966794191074765  0.6549808981636949  0.8173537491988909
  0.4702884300593098  0.2024471965150370  0.4149415317187173
  0.3579602098293471  0.5800936178750707  0.5795506349902465
  0.9397597973209468  0.8909815430881666  0.7644104039464479
  0.1953675250279342  0.8784642959636009  0.3906557571988967
  0.2853616774472777  0.4455731929120863  0.2299743319283520
  0.0005680056628694  0.9711301223153117  0.4296046022131401
  0.6133655561579573  0.5391166783406119  0.0070899933621330
  0.7811591857059125  0.5633710187734038  0.7619493830901877
  0.0224544712578616  0.7365846074621812  0.1023208583244318
  0.8738317904981910  0.5861891491777579  0.4629858894054062
  0.6386350239320462  0.8197339501868426  0.3586298601667598
  0.5107784391982551  0.4523106276388729  0.7459278311687834
  0.2519930718979420  0.1648890305204722  0.0643101476225634
  0.9719807793623921  0.4664956318523709  0.1555658907373658
  0.4148342684833585  0.5326345524604863  0.7267004493005969
  0.2987482037083958  0.5468578436899387  0.2521705590326995
  0.0566696439778775  0.7736680405298366  0.2791329609606869
  0.0421850475889541  0.0736988790603126  0.3687945414841501
  0.6368531134346506  0.1996419090907082  0.5415504737020640
  0.7643735322092935  0.5162620486408926  0.1365581377924121
  0.9381169565877279  0.8024556306911526  0.1098950114643290
  0.2574977243016829  0.6872631096353242  0.9891180923966003
  0.4530424385109431  0.4298676206048425  0.8245339799691425
  0.2137960006356827  0.0557782231769428  0.7103478711167382
  0.2044967995485925  0.0323511551023770  0.2977612143442909
  0.9915068595457092  0.6075277918177414  0.9233652821915972
  0.1891200374751556  0.6583349599426739  0.2617268939312190
  0.8807250176255004  0.1047403891653483  0.3334880281939119
  0.9240038708837708  0.7295151408801090  0.9125333341642465
  0.8931795455527245  0.7835994987986797  0.1004963125531900
  0.0758495488289549  0.8641662556670079  0.3778699422999660
  0.0326455400760338  0.2078813084438581  0.3595737766379160
  0.4910636800044079  0.6238288985462994  0.0656061984945902
  0.6743752084419081  0.2510209057170568  0.9449667570023884
  0.2528132259624673  0.4650798316339946  0.1359554245556064
  0.9404389076798112  0.9630791226413501  0.1398693966987395
  0.3277858326650521  0.7809138955433874  0.1074949965731791
  0.5360209049426096  0.3104592633355401  0.7742082301012401
  0.4265639501999748  0.1381488180530199  0.2670408188945878
  0.6590274782059582  0.4981249528671123  0.2927947030821115
  0.8030706810622333  0.3706191710547945  0.9650139577374895
  0.3939505262449967  0.8612338724820328  0.5407679362582721
  0.9658064393770597  0.2165642301019623  0.9593343694252487
  0.1839777336883606  0.0627018229321809  0.1236808884341739
  0.2512969223272106  0.6034373753768613  0.9733934510697372
  0.4578194141464766  0.5097883399452083  0.8833727063066277
  0.3212314158335962  0.9896993995415579  0.8036493811146649
  0.4611751891576869  0.7144600009139429  0.6769393956738431
  0.0086521620398786  0.0463525641357707  0.4359543250371200
  0.1233234001825802  0.0222848100562047  0.0559683360883624
  0.2871760462466230  0.3868263107198769  0.1320309216208769
  0.1729502909657330  0.4909659512788589  0.2964806849838391
  0.4443985859965511  0.6553229487031164  0.9479226040200982
  0.7157731561751496  0.2555561666312439  0.9012040273712781
  0.7115488469109658  0.1041120612444740  0.5392160085658555
  0.5030970507561333  0.1753613301338504  0.9270487314891566
  0.1518744525634229  0.6247162783538187  0.6749373720788885
  0.5737437833185541  0.4528091037298591  0.7333445873591288
  0.2524322366339599  0.5230915509780288  0.5479873479047728
  0.3730425008019634  0.9054027871287063  0.3231148912069721
  0.5925420005127690  0.3209154734636145  0.8475845512942860
  0.4972647985544012  0.6793424645876663  0.2435250305302551
  0.5821348968346323  0.3279989066127906  0.6001518428871393
  0.6599552307034525  0.6038697058060429  0.1882428625726671
  0.8719517788334570  0.5622181997025508  0.0246124525243829
  0.4528822885414840  0.0937166801716598  0.2878385829458575
  0.4927329641046769  0.1218684749542231  0.2929124877980218
  0.5915778232082672  0.5739283654694004  0.0450599909389529
  0.2344986616760190  0.5391821536071955  0.1106869251301701
  0.9420935920619342  0.9361410039180340  0.5719887258741770
  0.4095991894468141  0.6905343403603317  0.9961588809608858
  0.9165177909160311  0.5703343766896645  0.7389106554139484
  0.7258522503693268  0.3266584141242390  0.8199262791269093
  0.6713825641754017  0.3332670957244163  0.9160841196964075
  0.1185671136884500  0.7483377530115324  0.7195018199059470
  0.8052239905120584  0.2998530336546794  0.5395822678215906
  0.2808414445592945  0.8617489594768279  0.4463447060789108
  0.9966196659427805  0.1733248929175515  0.5163052891326466
  0.0034778925635945  0.8906745020769524  0.9205428438228647
  0.8862349214584724  0.5885687542588465  0.5135724230142744
  0.0916358478940598  0.6010810851517916  0.6789243614348413
  0.9404257977288228  0.9980449261826086  0.7769571484607372
  0.4402178896659107  0.1104368211575165  0.4604109386057565
  0.6454058666873456  0.7473503353393695  0.5188701095156236
  0.8927392448692486  0.6891478140666053  0.6561468644297150
  0.0390829892357549  0.0071655955537475  0.1568751260487387
  0.5919556654036540  0.3089887886624740  0.6842709867873229
  0.5509901225879520  0.3585654277371867  0.4806752356599221
  0.9543029788033489  0.6091681371909711  0.3159152562194907
  0.3730992236864951  0.4033594486832560  0.5001518183294226
  0.7481213643318677  0.9432185152427581  0.0240437292563860
  0.6519195756312157  0.5726384505758547  0.2670739289696690
  0.6912855554496317  0.0721347585548142  0.0430505371302990
  0.2424819886768395  0.0673119074018665  0.3148238527997164
  0.4362370828436626  0.8872274043389715  0.9678822064463232
  0.1193819604574758  0.4634337879013865  0.4496656577828084
  0.5634933659012347  0.4691041024130703  0.3163912740705737
  0.8255776363515106  0.5171156479781097  0.5610026241901772
  0.1297990548866143  0.6725272267710658  0.8797707472725977
  0.9584475855245926  0.9235246872774774  0.0518062665027163
  0.9616166182225778  0.5960102157002111  0.5288197429437915
  0.2179679632063608  0.1289504369583310  0.7603571944403327
  0.7858950810120710  0.3619160258075237  0.3088067763599748
  0.4882382621013598  0.6352507943681227  0.9987570348840175
  0.6838895319065788  0.5179738655935158  0.6806277612030230
  0.2381597272220330  0.9882842697184026  0.4503308015745690
  0.7239453484073951  0.6165748498133810  0.3249191109675552
  0.5915755140691727  0.7695525587565271  0.1410875327484155
  0.4979671120367478  0.5308749139820991  0.5838054099928065
  0.0828864546875853  0.9948553346978464  0.8388931007192035
  0.6842069267995393  0.6753100373334019  0.0384833998544582
  0.4856707228933199  0.9742554303472166  0.9117225283886361
  0.9226624100465665  0.3787687933145999  0.9947036764011865
  0.5372672813909698  0.4716837087350881  0.8303085409376904
  0.3762327254377677  0.8386865445027802  0.6630838907114625
  0.4674452094387266  0.0886159222664769  0.6593754133256526
  0.6841177642351476  0.6588472163798692  0.4507636906664348
  0.5516872591294254  0.7322218243406838  0.2243660289746099
  0.4710124568979808  0.8858693325979583  0.4930804150500453
  0.5178299540860762  0.9076040670810110  0.2642618444826829
  0.8006406473628548  0.3611361699446158  0.4575977367934022
  0.4296616975394613  0.9918860052873588  0.3826533984226357
  0.8853663127171409  0.3657893459293395  0.4219545361255103
  0.3576927966245293  0.4373706094298226  0.4161315204801562
  0.2517780798749879  0.1222311773908691  0.9016155755486089
  0.3230293040837589  0.2664284687264804  0.7093106207331485
  0.4666200646542227  0.6375300636311363  0.8040523631308387
  0.3280297820371352  0.3189946421787578  0.0551713479031402
  0.5597390781753239  0.5660193033613942  0.7890669442676557
  0.8982860204393752  0.9396898527528899  0.1639139034273610
  0.4393137127336877  0.5404180271970934  0.0108261635408084
  0.5978489608146753  0.7055250478969247  0.3990030343163578
  0.6624245197674382  0.6154779342551229  0.6330623264133746
  0.4039428042580554  0.3610669330159589  0.7729074399074427
  0.2089790061298739  0.9856893932830177  0.7074110186302899
  0.1613760478299394  0.3254991518104287  0.3591280383043145
  0.8243122281277100  0.1929371002646765  0.3536097172869010
  0.3836916171548781  0.2565331745553918  0.8143003969207059
  0.1743060535676517  0.5435757749088586  0.4417431877703824
  0.5197056826702318  0.6014463388146951  0.0182823375967365
  0.2041784921732478  0.1726343858399302  0.9553985535711650
  0.3152725334234545  0.3340394655073565  0.1025516418792581
  0.4856566073495001  0.4789438655133534  0.5939991045255942
  0.6818393143440706  0.4570317370059904  0.5733627753679572
  0.4781653504408874  0.6300563487308062  0.4831922717613140
  0.1582650788069279  0.8594078648767675  0.5188162916770496
  0.5308232935500827  0.2282914537027683  0.2604811506339008
  0.4810149025718912  0.5804717580238890  0.4475583076498003
  0.9276858304141724  0.9603091240765705  0.5261754434829480
  0.8923348475742749  0.9868248193223038  0.8028818530749874
  0.5784235888912228  0.4832238175808795  0.4881068273938665
  0.2172818509418548  0.4542310492377612  0.3442843707861922
  0.4520205327290783  0.8975747311099032  0.6577065016671730
  0.4476479916326974  0.3389406132354892  0.3574629627962660
  0.6945628942199860  0.0701731681716257  0.1417744085185898
  0.5544466431032057  0.5348657394884831  0.2735199466183084
  0.5864344393402829  0.6038776015719790  0.5775359483744510
  0.1030740752883500  0.4289000540800569  0.9969364649288780
  0.8654827629043196  0.5776595618043661  0.1366874868258845
  0.5295041792202450  0.4572716267625686  0.0650400683525522
  0.2972519746855899  0.1684559614042054  0.3348547778286191
  0.7247332862571338  0.8793324577747850  0.4708685453905412
  0.7102499934144735  0.4413788652119524  0.3637227409280961
  0.1850441648861530  0.7297641554605286  0.0065974897244046
  0.5091631964016338  0.1533493686048281  0.6632940223690643
  0.6120696821957806  0.2624490399388532  0.0181921275398118
  0.8682695958379817  0.5766038010638411  0.3922927133518425
  0.3326335722405792  0.7980119532129887  0.7209948645514533
  0.0666628624064545  0.3721766108856949  0.6722408935233445
  0.7569185138867931  0.1256904074201410  0.9062629786855964
  0.9306971712585086  0.6759971179465605  0.9652326555562486
  0.7712628114536345  0.5650663365547547  0.5069493651610247
  0.4756304371336024  0.7213488332281367  0.1565803756165760
  0.7041585589714702  0.5185788227921028  0.7843508628646956
  0.2068699800088133  0.4146507291695226  0.7149187747101750
  0.8285789212675321  0.5567539944771430  0.2317966151157229
  0.8138326845215272  0.3382699573052450  0.6052985414870496
  0.1072937197191211  0.2076052173453464  0.0110784230203184
  0.0560732622514923  0.9201785212644347  0.1695033608265574
  0.6083148730513646  0.0574536991219613  0.6835462895534310
  0.6377990410914697  0.5130415072434280  0.8468827219862657
  0.7665543278631790  0.3245880102167433  0.0205604092266209
  0.8212109053470450  0.0359527952331248  0.6853958354797890
  0.5332079638395077  0.0288019058925975  0.4929201161038704
  0.9520157392860416  0.1717947158256382  0.4898424806210138
  0.4411905586432116  0.9436363204421516  0.9223619240108464
  0.3651856550328366  0.7696686861064744  0.5761290867590212
  0.0328161091045525  0.3795982211796823  0.8869646839007007
  0.7544215151536731  0.7466307033138140  0.1932573815815053
  0.2192265185012357  0.2844421931575088  0.3862756555341902
  0.6627278363607579  0.7282567345619499  0.7795042778587158
  0.7071705702110276  0.2684834721659828  0.5161922530495516
  0.9244570580531609  0.5769509168115989  0.0355594454927303
  0.8208558193449931  0.1046621391453871  0.3996611762024769
  0.0751043719521662  0.2772940110032385  0.3974930808136110
  0.8872461754051593  0.3000102972002703  0.0677982651681288
  0.2298496384172475  0.3407112387466648  0.9664858476893555
  0.5481301793310229  0.7097294687695525  0.4066921695476998
  0.9753886217357662  0.3809102591155208  0.0214194904414262
  0.3430910300486482  0.5357812014069261  0.0790119427520434
  0.5283369094079617  0.8865613294427374  0.0387934297110326
  0.1451540198043242  0.0404234212025158  0.8878921384447636
  0.7713343202772069  0.8072905955133018  0.8256878791211848
  0.4750343440496040  0.7606949991433546  0.7403012040790007
  0.6134443275964239  0.8046828325920024  0.1839198934784606
  0.5537631006870469  0.2401881941840378  0.6518316048805500
  0.3449174845840609  0.7607186864411629  0.3637462047608308
  0.7257297170206011  0.7250340702462854  0.5434315282038086
  0.1922779714078155  0.2409530965090997  0.5540984845184375
  0.4563880458613017  0.7095986672131013  0.0613633369737699
  0.5203525395701308  0.4149854798498711  0.0277259913957415
  0.8298625046506574  0.8473324082028354  0.3228596568486690
  0.0240101326792173  0.5642166851005057  0.9212384905971804
  0.6440974786810436  0.8127155081299237  0.0632644521213981
  0.2924230247983401  0.8057182952550028  0.0583541981915136
  0.2261885914933229  0.8149447957047944  0.9576846757631042
  0.0506020923646220  0.1570267284791301  0.8388180164544525
  0.2965129943090730  0.8176402314233280  0.4532914903355415
  0.4485183880946181  0.9845848799122553  0.8323754438923654
  0.3750585282082009  0.3047780549015152  0.3136551304644544
  0.4537524987825101  0.3534840554271441  0.2756845038101745
  0.1205090158675443  0.2010553815479006  0.4918233495223283
  0.8836206035616788  0.2085744971023634  0.8146416280881904
  0.0383440856753571  0.1430396770767193  0.6062970206803587
  0.9135172508835885  0.0756447011892407  0.6878381597582193
  0.2023664697571760  0.5305202004218367  0.6340945860769859
  0.2873937757167295  0.0942697562289779  0.6540325123910654
  0.8856554765224620  0.1796534424258017  0.9770230452845438
  0.4870267462044913  0.8550924563508866  0.9607046572569558
  0.0974999531798338  0.5224331111384782  0.9171147406161452
  0.1155381563474732  0.7430128037711959  0.1117739709810080
  0.6132165794421814  0.7613391744623695  0.7621891611142291
  0.0691963744015067  0.8238191151984917  0.1270700714738970
  0.8419681291095341  0.6931739842988072  0.9552014573761934
  0.9397404303478958  0.2261676416426669  0.4953001308709275
  0.1572653146894452  0.4611694907983085  0.0754688853870133
  0.7918826041958203  0.6743901061134857  0.6670892042034556
  0.7007871414051035  0.9440626918027023  0.3142923783661858
  0.4610517247044877  0.0476831310506338  0.6164106402284170
  0.9333523832637827  0.0432642768177361  0.7288629208184421
  0.8051636549421691  0.5038749699217362  0.2518422143511294
  0.7785776426865896  0.8026978668310042  0.2748852995963052
  0.8264653141124614  0.6050835308420061  0.2264207530827702
  0.8913337985326188  0.9958568306696499  0.2405368183210429
  0.0770805667090231  0.0947424872812691  0.7021884163936917
  0.5797972659432135  0.8058854471301035  0.6566136829685990
  0.5526461850046960  0.6914810129007297  0.9486283812110866
  0.9129616422221024  0.6578638210790324  0.9188322931723256
  0.4010000671913339  0.1816284639910219  0.6499467514725532
  0.7393719618143485  0.2967071295918184  0.6087166632538121
  0.1676633307879197  0.1179767934521880  0.3321388578116664
  0.0583632531825193  0.7909537343729576  0.6765183129867026
  0.4689365780961803  0.8957850738232871  0.2523294054558956
  0.2686615924517823  0.2348598184792387  0.2581389014642930
  0.1492893899691898  0.3565217651501728  0.6310203770585923
  0.8584690881023055  0.9781598121142718  0.1951944513283815
  0.6359153050088412  0.4677725112832863  0.4243980894618457
  0.5151559710146144  0.2086692276715074  0.6971667092583173
  0.2459826062999629  0.9487740059507576  0.6833765305858044
  0.7210089428510940  0.0416111939353076  0.9095620680564539
  0.5069545793460769  0.5246114114323747  0.2601974617228845
  0.5428482843615459  0.7849841628834590  0.9242881929458290
  0.1399148997743644  0.5914759603788555  0.5547466822087784
  0.1782621674992599  0.8256864638423849  0.9275554757878683
  0.2101352702872792  0.7508739326209013  0.0704502089967005
  0.2410346985051660  0.5884228315657440  0.4297777504010508
  0.0794379602928940  0.3721415268691297  0.4678105748341670
  0.5550798313894323  0.3379604209340416  0.1567875649840414
  0.8511166402486170  0.9187474509326913  0.1659196328181205
  0.3878028903359669  0.7289648953803909  0.8439782719354985
  0.6804472014235027  0.0513506351840828  0.8164324027001748
  0.6482280071026465  0.2492466302763447  0.7499446158678912
  0.0047149160675174  0.1908823016681583  0.7234147678341591
  0.4045695120571457  0.9534874802611916  0.9571225866144817
  0.9435808266155251  0.9323091738115619  0.3149593098785357
  0.8622934693729889  0.7425476984645436  0.5137685136164144
  0.5190658649201532  0.5552845253969084  0.8287140431487409
  0.5876562718747190  0.2984210880847308  0.1898199859521393
  0.8531836921800078  0.3025721008047529  0.5987168619166068
  0.3957536659243904  0.7798026037320570  0.3041331533210108
  0.4095045892322965  0.6872641524723346  0.6968231689517380
  0.3174202934906169  0.5524375431142518  0.6417431996416370
  0.7620266275173175  0.6261528608240458  0.7712172990669650
  0.2162462579242281  0.0756251386842504  0.9000242807590485
  0.2416061731868824  0.7546387232052744  0.7515850729736576
  0.6639031136715141  0.5539336790266103  0.3878394268755110
  0.4263708763763293  0.1660152572475591  0.0863918302545688
  0.2597799358548331  0.1602018506003726  0.8318773402431686
  0.7204767980223424  0.4065366006122508  0.5656827277162775
  0.8336796605506256  0.7681876340865882  0.6520562617679401
  0.1999884847978714  0.2998232941777926  0.5433857551078864
  0.2339378202073911  0.6334008759999754  0.2512772946449072
  0.0170963875009517  0.1118961970652574  0.3354577238415431
  0.4761302912592095  0.7373821543100876  0.8401874849142226
  0.6961401107099057  0.6999031880620471  0.2013503368230474
  0.2389942761617202  0.7100576644744070  0.5016726843765998
  0.6053427503274562  0.0052946999837502  0.5033662889257193
  0.3939543623954279  0.7021151198495299  0.0938986738520696
  0.5168399293213874  0.8206809206806722  0.1501470675440012
  0.1471117507594697  0.2821526817452856  0.0138411170705024
  0.6039046036017134  0.0048814263534416  0.9682439964005850
  0.1272158545013284  0.4365347383217829  0.0417349796195503
  0.6704344763562037  0.7077116536427257  0.5034803678458247
  0.8332966414143659  0.0196228033160345  0.6048421513182701
  0.7421722771407883  0.0817103580048924  0.2373227946548934
  0.9206813176801784  0.0135424455246253  0.9755816955594117
  0.9020082781713942  0.6309221269145379  0.2353861532160750
  0.5450000295558552  0.6684600134536677  0.2397153607102545
  0.3909685710578472  0.0809009675080819  0.2195627030824735
  0.7435024902359514  0.6616499153337614  0.2603665316732007
  0.0578559362545563  0.1572298954752695  0.4928329647251416
  0.7624258851155969  0.0195016864099893  0.4920444682127186
  0.9344271012913901  0.9496387412974788  0.7648276132389783
  0.4505167245158573  0.9999554035857189  0.3309011965011790
  0.4088989243943095  0.1884110572847781  0.6999054227127838
  0.2208692847460967  0.6581281057728189  0.7509476760952104
  0.8733968529764833  0.8604499570036199  0.3390757723608769
  0.2914352719285668  0.4774186418972397  0.7110637042360416
  0.0175804035394629  0.9308652169939038  0.1378292443755911
  0.4302140287132004  0.8045375058057630  0.4656591648374682
  0.8865432287717706  0.8044689765165061  0.2501929676191322
  0.3515123485938499  0.2898699177096409  0.4119132075287825
  0.6759344732375768  0.3631164056948882  0.1975255272443062
  0.9924238112313098  0.9659833492270434  0.0963830188753934
  0.3216051611692990  0.1449432363735908  0.5611297013287341
  0.3195007533264275  0.2944810450163369  0.0099745521116425
  0.0521796393966297  0.6260573667492334  0.4131125445791364
  0.1818061373466741  0.8164119928901135  0.3226920207992422
  0.1315576319059015  0.0237254451586531  0.6575844152485947
  0.4292094042303656  0.4598560748278492  0.5729440763082690
  0.7614802554122095  0.5546314859633047  0.8199938400675139
  0.3276710461055468  0.8736378973026089  0.9463935814977322
  0.1933312367883512  0.9532705701630219  0.3019589312647087
  0.9588466196577984  0.4214734530660910  0.2166060180707374
  0.2870265853565209  0.4355468364752939  0.2915827961213640
  0.0935110457486654  0.2506734733937779  0.7654812485794451
  0.3284922057629036  0.2479712033684082  0.9647279224431998
  0.7672422278482742  0.1558211623398478  0.7367364892239148
  0.9177726962813695  0.3968776207565618  0.4403756187637384
  0.7092251825866510  0.0849720635311349  0.1960573244661556
  0.4691877155947995  0.2603359914464666  0.5603194914599868
  0.2205755212846760  0.4386488668953588  0.1969738292216090
  0.7266034654586268  0.2936590101207749  0.6641133943058318
  0.6320454858398461  0.3766900839551997  0.2318248089591834
  0.9673464116880351  0.3407865092323107  0.5191729791787961
  0.0145058069488320  0.5950919604683473  0.3967097612420614
  0.7489336598746359  0.0425380991277311  0.3050134567345307
  0.2659435122724508  0.7852681125037279  0.7122660953090689
  0.4084783631256740  0.9276163327762628  0.4643775926400059
  0.1941371821986094  0.3539260320986722  0.2408099112631496
  0.2920341769480755  0.2023004916941767  0.1910455056602909
  0.0862593806431993  0.3320144622539934  0.9917101382743854
  0.4154581084806702  0.1798805201848232  0.7503463315819809
  0.6785780650590202  0.8106695364038152  0.3978855972155016
  0.8349691285140239  0.9443595279088858  0.0796432315851438
  0.4504078225366251  0.3759678820812971  0.7263903542667093
  0.7030873418966835  0.8507251294395579  0.0486435466930621
  0.2678418480732254  0.4182995786248431  0.1673610011653419
  0.1460050399821494  0.7790460254809891  0.6206796797515125
  0.1154251947527361  0.1375965613676386  0.8598546460473794
  0.2183681891532928  0.4805533354622384  0.6233202920386405
  0.1683045079505297  0.9964919928973606  0.1959365415938403
  0.4154597472245437  0.6618650377113418  0.8697650241109403
  0.9023077958584617  0.9269019894241173  0.0347909933318628
  0.5167070048467364  0.3068776768673925  0.0084189622689432
  0.2387642374904727  0.7614092680071421  0.1193758896563080
  0.2250075599569199  0.8235026886541837  0.2376876200097391
  0.8851607248493701  0.6692599439290264  0.0841772168862020
  0.2974302625701947  0.5119175896554355  0.9777937763236104
  0.3419256969336700  0.0464767595059818  0.9873640405450548
  0.8560257954752227  0.7600102276692906  0.3101349782694749
  0.5595016465345560  0.9177648750037912  0.5913036688070606
  0.1594887176840428  0.1613821558752862  0.1151602024195497
  0.6732496148658632  0.1534240990498792  0.5362061947328558
  0.1524301170911776  0.2572005157537100  0.2068395328925266
  0.4548522448983679  0.1891280635957180  0.9252473795303523
  0.2546892525000544  0.7910353736132028  0.4411239660512598
  0.1106862919791280  0.6557887244049897  0.4068078499674998
  0.3742010554763737  0.7068058007224503  0.9645565992200575
  0.1331979027907733  0.7692974361307608  0.8232325938684820
  0.2046324056041275  0.2561668780554778  0.0014632245698884
  0.6002210425716172  0.9060641692583934  0.8218091213492433
  0.0130338006089068  0.0736430314139861  0.8944053259701287
  0.0131667413778861  0.2655095430993956  0.8376496665609799
  0.0263376936757541  0.2824129813119251  0.5829414940180220
  0.3044618704443703  0.9452867589878751  0.2836735105482840
  0.5456452477118807  0.3439873857032928  0.2277221205613412
  0.7244377164530345  0.5409889804603046  0.1106650627971300
  0.8270178687512744  0.5094674440994270  0.3203855632855995
  0.2293371398928889  0.6498485013284991  0.5551797202773601
  0.4673202552183696  0.9310897993929360  0.5144910879321065
  0.1432828350099998  0.2671353073765687  0.5604517455394169
  0.8778628024736557  0.7237372279354561  0.6216167432937429
  0.1832184179901403  0.5566096360395562  0.7592009116608379
  0.1042252090601058  0.7518184449989206  0.2098704827970770
  0.9244256984544901  0.4013003297619803  0.5034927701574131
  0.9174815957787433  0.1676181349767711  0.2569152439650886
  0.6248782905322250  0.6284482195723631  0.1190328800792787
  0.4173176358469852  0.0226616722641329  0.8820549327672319
  0.2815229013014325  0.1955642301590268  0.4066727653304700
  0.9959393637701898  0.0119002449257320  0.5679988314722666
  0.2921627252317006  0.1410021411571417  0.4136424920013302
  0.3254616841664111  0.2385925790697200  0.1338830746397609
  0.8238642551433718  0.6996862779638774  0.9043335812395825
  0.8622655362387811  0.7020969446902054  0.0436858995454714
  0.7103683554151575  0.6824735082231287  0.4898715683247690
  0.4075576125338211  0.0664499420909541  0.9093742829062184
  0.8229200407187841  0.9758590157158287  0.4091797082593682
  0.8574054688400234  0.4289468700129895  0.5852571880880427
  0.7086897602701524  0.1724672339648296  0.8175960598271004
  0.0304238410026229  0.8809316483302815  0.8276429005623120
  0.0421916072199706  0.6138391158932300  0.5396826408838447
  0.1829036301897058  0.8314143206105371  0.3719092349250561
  0.1939763990781083  0.3227955596167065  0.1284707412445773
  0.1876968256651694  0.4730982054072014  0.6649169747107271
  0.1323110630238487  0.3060359770453481  0.6344694114938783
  0.1145831411109917  0.7835488467153160  0.6718353044146446
  0.7995573631740901  0.4671408872525754  0.5398758264400270
  0.6761615137524192  0.6155059418776888  0.6814150286575409
  0.4926403378316433  0.2939155852695200  0.8132037048275214
  0.8077670975387112  0.5394871834327466  0.6460206191049949
  0.0047100367891056  0.5540492477138734  0.7185914976841983
  0.7350870190268440  0.2347254042374299  0.5614807277152811
  0.2694791394237816  0.8566447192409139  0.9645019247653678
  0.0173825624609125  0.6738991533466462  0.5364256746793727
  0.4570859272863539  0.6686378916523041  0.2019447725410828
  0.6191791490260385  0.3547121822278217  0.6223539918159390
  0.2598725062615983  0.6703501555350746  0.5992938859809859
  0.5866279600940758  0.4396471226235942  0.1908684095894122
  0.3350277025514560  0.7026725907199634  0.9089313006418587
  0.8368107786744458  0.5251816570561859  0.7620692348580295
  0.3408682229609137  0.7684586972209426  0.8414333026998986
  0.6021011659688882  0.6294914290245839  0.3821746617464900
  0.7342549095808777  0.6924912984987640  0.3495940499131615
  0.0267172002203873  0.3540859213588787  0.4346114861652948
  0.0239789267127846  0.0171148757441556  0.5270624136044989
  0.8688307911263096  0.7129708296630470  0.8874688211068865
  0.0461360963122259  0.2225887739995822  0.7456837328199843
  0.6104120927676999  0.2175003997838981  0.4061738050651575
  0.3790284224860184  0.2961820984012452  0.6518027033976895
  0.9617371403856405  0.9829764528003805  0.6535849863368746
  0.0255835083631833  0.6163492245773383  0.1807587379243221
  0.7217834727964130  0.9753504092081695  0.8482296949619536
  0.2136269306853665  0.8273692303354319  0.8760988436705109
  0.0004223115995607  0.1736375391776968  0.2515556203941555
  0.0255172183801854  0.7077065139460315  0.7320956410624216
  0.2972414532050383  0.4807161297684026  0.0839991897108498
  0.1291346280452985  0.1684076184599361  0.1621441159102116
  0.3360829418734756  0.9422421963359207  0.4178814009836601
  0.6508004625423071  0.9199535664236130  0.7597110079356548
  0.5820153057760431  0.4593513789589793  0.5376117900462015
  0.6558728217610452  0.1430325820606305  0.7492718370194472
  0.4271553505174263  0.5817566821974561  0.9453821040859717
  0.9280250503959940  0.5080034126693183  0.5712528926307808
  0.9009397426774917  0.9940721641030125  0.1611926016265509
  0.1865557757548628  0.8511135117375858  0.8374013223757815
  0.0581984942459159  0.4601097449306366  0.2175055581026819
  0.7428232309003713  0.3914141604147329  0.5074188652807925
  0.4674766435257553  0.6588160057579141  0.3953860658782134
  0.8973965549578351  0.6004579155497010  0.3423911746821119
  0.3610807506063471  0.5004243339867557  0.8406803743783672
  0.8924244570688141  0.2625100086597845  0.5876158619405648
  0.6740229529974560  0.1184078855124198  0.6347859870149019
  0.0609616817814709  0.5590068948614643  0.4153417576656492
  0.1882768106417745  0.4827877627338034  0.7704845570904212
  0.9577944716026311  0.9065013414308378  0.8125708517389053
  0.2708189615171123  0.9551166151365591  0.6082539043304332
  0.8170238402618053  0.5593171761162465  0.8490945792853906
  0.0772555352061796  0.2817705378472310  0.9347783883871896
  0.1907168816473787  0.7616116528755237  0.5367305555282081
  0.8403036867525278  0.4172244881554462  0.9653534756727429
  0.7181814392740251  0.6482645063980116  0.5239486885122455
  0.4869835802010951  0.6442089877528019  0.2906968315926446
  0.6487811576483224  0.5022554068003574  0.7888197174078255
  0.5713997464283570  0.5069077634131444  0.3759342133435317
  0.1222077694244028  0.3159192413466377  0.5406998538991625
  0.1017246255747624  0.8579432002956165  0.3107562111742604
  0.6581411412354494  0.0736554570031863  0.6204328625776507
  0.2104992204039197  0.7887937954592805  0.0135663923678057
  0.5913680267482758  0.7833627003089539  0.4631121099278474
  0.6574295539525457  0.7380529219728685  0.2421186903333305
  0.3146948017196756  0.6518441189246752  0.7253503478138779
  0.3678689863932134  0.8373223647164203  0.8586219382126916
  0.2998859016425975  0.9068750495223616  0.4209127791962683
  0.8903034755663125  0.2413376985229647  0.3672351649559448
  0.5956292449937932  0.5034884498326556  0.3339361129107869
  0.8299228402205465  0.3667294262500645  0.2139376961144751
  0.5020994654231189  0.9367299833638543  0.9500278684790855
  0.3356361234586848  0.1370596958392059  0.6533931788153131
  0.5598444419575563  0.6471213335695052  0.8502076588173103
  0.2627114996678714  0.1841829677364314  0.9649543670511792
  0.3928518602103283  0.7311535868002125  0.2422285792833047
  0.0388003920447339  0.6471755610940476  0.2354530810056374
  0.9597918024310387  0.3940964861822782  0.8876805170200039
  0.0207375332306337  0.9184558290115600  0.5262875112173905
  0.3996510457858040  0.1256273437141441  0.3184088657323270
  0.3310913280346881  0.6018812763364029  0.6471363802177985
  0.9719336282318490  0.6080540520662199  0.4706043724292916
  0.7473113779281942  0.2203212552750255  0.0593273932428421
  0.6681864922035031  0.4717959999346041  0.1985781222296208
  0.7926953466687359  0.1377657523615363  0.8620387191890121
  0.3879917183232129  0.7971347783105003  0.5015665384666096
  0.8227761292113446  0.9598396984451608  0.8781502530467454
  0.4693402305075751  0.2236171416464938  0.0424806499817101
  0.0286918586548628  0.4719552932879476  0.5285401881366379
  0.2033324720264459  0.0869503905172364  0.6723924028432886
  0.4537969683321691  0.7210639152592153  0.0121649137001139
  0.2462289020553194  0.5350142692741118  0.0580970038582936
  0.5609380800280673  0.3908444734536058  0.9324626198288111
  0.0275370772813318  0.2819849898295904  0.6827812196295638
  0.7559853237391728  0.1963932483381408  0.8234579211510931
  0.0733005479109844  0.8293947922514788  0.1957773227288548
  0.8808564895771726  0.5840495828299632  0.7093315519617150
  0.1388074161803310  0.9353673678330098  0.8825373193729142
  0.4187931012400297  0.3269344679785717  0.8172233200842290
  0.2325449251590652  0.6761951824901845  0.1690037860322923
  0.5584820498917857  0.6314463759773533  0.9281758893207173
  0.0948528697166143  0.1077993001372409  0.2572228622610764
  0.8803828181093630  0.9870961059217318  0.0601957319638762
  0.6590308301820630  0.9589956708619324  0.2593132104263966
  0.4877118156319868  0.6710089305722357  0.0786110277878009
  0.8536497658353127  0.1705049499088083  0.8714147177730848
  0.0047106734317894  0.5883490136030770  0.6065186980334333
  0.1787028220024356  0.0418877086863548  0.6747109274709091
  0.7964693738094870  0.6137811267066142  0.8635455441807276
  0.9803436617908308  0.8619290723262011  0.7443481565630533
  0.3640952199617148  0.2649417369693052  0.2400335004867940
  0.6846408214842367  0.8534864128664644  0.5356647388593683
  0.4693663759211938  0.6147902577351013  0.7597408032788099
  0.6212856797871099  0.1616250437882694  0.3963677107026399
  0.0805579951752315  0.4344452281504890  0.4772792741796313
  0.3299300545352148  0.0040158416648583  0.1147624718326070
  0.3927107420163096  0.6873584547334208  0.7392303594460035
  0.2333178349826001  0.2241724523545486  0.6365220871721965
  0.0577122109680115  0.0500863815298295  0.8114448857210710
  0.7471037788747603  0.2470702108134849  0.8218688610122693
  0.2214346886266452  0.6488269679884235  0.4169923079439095
  0.4167386005969431  0.1645927344548834  0.3432232841280782
  0.9292652815548285  0.3591591371937327  0.3865090275594532
  0.2477925802861928  0.6624039609806611  0.0443594279330167
  0.6129331139962388  0.9911067080871351  0.4316280412109875
  0.8567933235149002  0.7418352173213453  0.1973762339530092
  0.7877307721038616  0.0538303898623518  0.5913503730074564
  0.7406232172501503  0.0442737290772666  0.1933514045112493
  0.8305238122919866  0.1222900418156900  0.2717175332004041
  0.6615922613447561  0.9212945803306699  0.1226920834163455
  0.0894932275235917  0.9648871040640064  0.9728484942434289
  0.0669902713280286  0.1141421141660266  0.4526831439166706
  0.6315959485999924  0.9726850667862229  0.7423318312033843
  0.5536467126278469  0.2732371701896763  0.1411933807049743
  0.1528829411298232  0.5007582280509884  0.2450623026382572
  0.8372241890607239  0.6837666261160636  0.7095687973815882
  0.6486635405312176  0.0253750713157233  0.6542333330039314
  0.9833444252883470  0.3479509857148689  0.2047606373122317
  0.4815451107033376  0.0812405692427378  0.2021582375527002
  0.7183608817281774  0.3003237255881734  0.8701692724291982
  0.9290644609419625  0.8293889076712059  0.7397930445014891
  0.8404170580332334  0.6179202212893743  0.3173842411253991
  0.1027299483859524  0.4965638631066756  0.1217535207959126
  0.5170831710540705  0.7888056391081849  0.7291396450679959
  0.2509791922366396  0.2308990862694414  0.5436351421300953
  0.7012164178116119  0.5792016942777204  0.1369724792831638
  0.0399508111938062  0.9391334992078247  0.0638222861225763
  0.0116271054284016  0.4224183378858997  0.3929760323029275
  0.1616375392103051  0.1129585500254554  0.0412341943894696
  0.7791285585815290  0.6228164155417074  0.0944884447366922
  0.1963952409017143  0.7146474136223889  0.6455710073767832
  0.4702745007363848  0.9560200099410242  0.6121206322325760
  0.0994354493601497  0.2941125138656863  0.2811535694009345
  0.0453994204192812  0.1886599415105712  0.9945766737509876
  0.9665487158634130  0.4025573208013394  0.1710320109071340
  0.7690762801961915  0.6247670049255404  0.9550651436812585
  0.3746648944809420  0.4604901197301914  0.1797365341890257
  0.5347893516774691  0.8197256819791172  0.2164292013312009
  0.2090821725055487  0.6852209368154680  0.4588955474528839
  0.6819218474446105  0.0086199184738981  0.2243876678425763
  0.5227922940002140  0.6674625398531900  0.0301468793214284
  0.3318524873197661  0.7464342030257055  0.1461338862192061
  0.9731918110849345  0.7994556120772152  0.2017080857838938
  0.0458702008077002  0.4057959628697709  0.8394481879621846
  0.6618596745495738  0.3877457577654669  0.9964328491411977
  0.9920148701465050  0.3558000846947753  0.9796261154392962
  0.6284514225717525  0.0888459795598138  0.3640451637852141
  0.9433363558249368  0.7311392850354982  0.1214467311829063
  0.2183596602363146  0.6630751010852316  0.3230157099584443
  0.4737434608074058  0.1839294093661808  0.8065986731568806
  0.0472431655647686  0.9133422032425518  0.0099359589950924
  0.8087175689853614  0.4792008875922458  0.0502660474490552
  0.8565147370563992  0.0283784302669598  0.1333860510717535
  0.3321323773245301  0.6235137010598966  0.0494647482501203
  0.8802654989456895  0.3065823677725457  0.7855569783556173
  0.0831642683293732  0.6908662604830804  0.8417302132944400
  0.8169232064902985  0.1386175174229404  0.1021614159943726
  0.9587979042717397  0.9875030358208738  0.5988515741118472
  0.8026198030319376  0.1179087576483021  0.7440008173502218
  0.8649923315559853  0.2732818818264985  0.4599938038015839
  0.2053395794518263  0.4288047089819603  0.8869208847462625
  0.7237851984379360  0.9195946815153089  0.4353029988357476
  0.0060481054963244  0.8436415845578451  0.7912001418608510
  0.5361476841277348  0.3665027209328325  0.0206675886625769
  0.2773610505253377  0.1653974880514154  0.9055139982470329
  0.6938104128286018  0.9924992679378504  0.2796216418326108
  0.3060725694511605  0.3354724352922260  0.5634502743861965
  0.9523365606434648  0.1807105998230370  0.6926976312501136
  0.1571059468477440  0.0707571894861238  0.8262563742685857
  0.4181119424513233  0.3241870766304114  0.6248415305276073
  0.5155404426738531  0.4734758986258722  0.9848481962573891
  0.1909655051639192  0.7154793740916395  0.1273546728672973
  0.7486600641361134  0.2792400752193298  0.1730769770404110
  0.0900783521968911  0.2074350300696619  0.1249392016418857
  0.9647252408623158  0.3671370637886064  0.6628078368571296
  0.4755422429178631  0.9386496973233425  0.1084249930324550
  0.9526573075125303  0.9799547580742978  0.3453563699887366
  0.2380777341620878  0.7203514341160170  0.6078376261423765
  0.4065888541953092  0.3026100526230968  0.5217848389597793
  0.0554259444548789  0.8662201231590525  0.4365087046407010
  0.6090638162457490  0.7121326121717337  0.7649085075956447
  0.9201240702748186  0.7872749033535873  0.8767249183185593
  0.8192850088538519  0.0147007930282902  0.5549746165839156
  0.3266733862841745  0.2410329666508451  0.1841114030465906
  0.2468868018542753  0.9289455030344155  0.4721615143067603
  0.2154585249174735  0.6092975234686224  0.3086621013468669
  0.8925076605645750  0.9824453508086394  0.9348201018676069
  0.8927822991401079  0.2526245841961161  0.2624554459376316
  0.2475749997928021  0.3804227328131441  0.8329121325109481
  0.3436536778599548  0.5160006317488849  0.9243774299985787
  0.6660976896716091  0.8320495573266056  0.8352315509988633
  0.1440173088408646  0.9641185331873184  0.4288248953269480
  0.8111498373354767  0.0154586166315916  0.2058603275618210
  0.8614186780979528  0.0788879289472046  0.1037995732720892
  0.6693245998236732  0.1196063845687475  0.2365818962031609
  0.7059062793125953  0.2283145264716241  0.4366266941995955
  0.9291911656387299  0.7243851276723657  0.6839690109844452
  0.5248293271233758  0.5414450726756526  0.9440723008008700
  0.9353573119046948  0.1808574722427026  0.1728274410414863
  0.0972132102461442  0.5920300792731840  0.7613826011750182
  0.1029860207382817  0.7733264369205625  0.9363155301405657
  0.3048387442911045  0.7451037664654687  0.9620704757871893
  0.5607283208122549  0.1779213646398331  0.4544834157942857
  0.1928454423402954  0.3634323108206911  0.3666306174433261
  0.1361977910500843  0.6852008249588383  0.0682727792854869
  0.1018638815598339  0.0497093819839914  0.6908604503911652
  0.6882524640047920  0.5612673185699321  0.4787233427298261
  0.0267570421808126  0.4164376676310757  0.5043383992403362
  0.1214238911901689  0.8394694171441827  0.6754567049100834
  0.3238968327439009  0.1132125646368980  0.3547442122217135
  0.5251538728986936  0.2526975082984884  0.3942100809280574
  0.9579459064342173  0.5659362115981702  0.1966137338774892
  0.9654817446250259  0.7992257410047729  0.8604343889368213
  0.1614953223130075  0.4219734934125928  0.1769625877412783
  0.3846079356894367  0.9421102774541011  0.2235033793019095
  0.0081642755164587  0.5031385407714769  0.4393514038427790
  0.3609380681568128  0.7422501174747812  0.1041762236537497
  0.3501568094570049  0.1298495673043071  0.5216634229364220
  0.4932666359447653  0.9312048094175150  0.2273648371527316
  0.6793347922868039  0.1731056178140189  0.3918224311043167
  0.4526264210321389  0.1822065495145008  0.1860881192219527
  0.9113636434803319  0.6927175196416697  0.3830715388196398
  0.0824635004804528  0.5495195361823491  0.2009912098275801
  0.9337148436132656  0.2705471534991791  0.8198635599295678
  0.3689098494621607  0.0366860982001139  0.5527218651763101
  0.4062141405109539  0.8031474040708579  0.1443290333075809
  0.3196958383357360  0.9731719226933784  0.6108223746429468
  0.6341605827620747  0.5368412079838507  0.6570860881343242
  0.9710998800420092  0.8944428681025041  0.5653334890503198
  0.4880430653595145  0.6087139816729282  0.3955949684779101
  0.8261555170320055  0.0337119456684531  0.4880513335672400
  0.8053835445746546  0.6063374306145130  0.0481709366843525
  0.3279222580925239  0.5137300776237442  0.8740715685222326
  0.0546172662529906  0.9924208316969944  0.9447894002222572
  0.1210248011906947  0.5001517810852436  0.8756346322241533
  0.5610739095486760  0.5073449728297676  0.9830271793721024
  0.3456244163445965  0.1250337646122244  0.0438671483423023
  0.0590976432139814  0.5589243245167455  0.3070138974518801
  0.9682520411432370  0.1387962243045583  0.6756437451767400
  0.3871394597764379  0.1243199147454500  0.6343889640673591
  0.8705779155605715  0.9921486512372718  0.7086995927333937
  0.6402157413747865  0.4063610687968879  0.3353271085059866
  0.7809160557057662  0.3111227311392482  0.7435879283824490
  0.6866918584186815  0.1368596759761873  0.8609117103341674
  0.5967402760958710  0.4773365184826682  0.7752712534566590
  0.5427367380456086  0.1311445753393234  0.1957829093556964
  0.6617984451193900  0.8754536255144857  0.9803358405132525
  0.1753981087605575  0.7743324766821972  0.0403291654966533
  0.8976610631166952  0.2573466060456178  0.7751170625558310
  0.7437865143445783  0.3450765544723305  0.8668100709535252
  0.1448450234737155  0.3277444916264243  0.6827656515627653
  0.4861232396674892  0.3062155684762159  0.3651104590355487
  0.8375374126056427  0.8714512170684501  0.1574400829991399
  0.8330148519564756  0.5595320005403953  0.4249211094667560
  0.8628131001576153  0.1777678068900471  0.5015083630590991
  0.7567243972261370  0.2879931462884749  0.5076852728927788
  0.7328271912252391  0.5664485797679025  0.7764740914598339
  0.7581053368930221  0.2533583690096703  0.4598127226035583
  0.7921581366316479  0.7280094332137619  0.9567015039273411
  0.3489305076210955  0.7379320273680164  0.9420375023284447
  0.4327497986366011  0.0839358373624661  0.3416343729659703
  0.8660669006068770  0.9705914969994240  0.5264392067582293
  0.8724720800133043  0.8076637821863205  0.8477613121675542
  0.2566512572247337  0.4774932047434854  0.2572048919447359
  0.8195273194820616  0.9226516837230305  0.7982195522664224
  0.9895861027492103  0.6805063451796657  0.6526358556806663
  0.5011228485628499  0.1195006576557703  0.4595416222250251
  0.2244738322505632  0.0778643751104215  0.7633400807319558
  0.5412058533142954  0.8690982788194852  0.1711083987181481
  0.8197468366727573  0.5922617380662155  0.9610434303086300
  0.4745230932052402  0.7929138955107792  0.5611730907972038
  0.0614192032421858  0.4146513250763857  0.3953357862366390
  0.7309763045084392  0.3676646648275267  0.4095653344881540
  0.4263935208371272  0.0875982995651906  0.7823763999621596
  0.3420508001307428  0.8460626796542772  0.4474753276191131
  0.1412548708444108  0.9376315159593720  0.1610701241440936
  0.1880667907167094  0.6851539717817268  0.3570216192757799
  0.1337733625996367  0.0986627816237780  0.4947026225081292
  0.8971541698412677  0.4994795981436627  0.0906978346252663
  0.7566989966960973  0.6783771699577964  0.7028068932292354
  0.9717439808726663  0.5689165280414462  0.7569464470210011
  0.5049250323028828  0.4324532977280282  0.8303502544181076
  0.3384329378323038  0.6858023184487837  0.6444437750568647
  0.5110772864901015  0.7861313580832914  0.8246478726683532
  0.7956418826417099  0.3482205218378864  0.8729854537758681
  0.0835414028853599  0.8856558489642514  0.6556030994171329
  0.7213112166074033  0.5817458068972046  0.6833240907818513
  0.5225179161339336  0.2985017031100551  0.2132184737748880
  0.1961092614736930  0.3357878934878815  0.5879357521935147
  0.5708132623425262  0.6844578780772640  0.0479013959058126
  0.4390017927350319  0.7195594738949525  0.2025434913396967
  0.4293636696195515  0.9338539133774423  0.7021656229561780
  0.9802446667631977  0.8653060020310515  0.9934051953464839
  0.7968878494041015  0.1631993366101418  0.8064489515575258
  0.0185760801083065  0.3339258335173985  0.1093924385136590
  0.9599989545543253  0.4422399506291371  0.5152900873029916
  0.9708516848335265  0.7063818874777099  0.5350836551794844
  0.5929219283821765  0.6614865623649131  0.0018823093105078
  0.4244152962725178  0.3079865105629126  0.2845995125693682
  0.8074302611843417  0.4891250087578370  0.7855791013979101
  0.3223712366859977  0.4634385179121125  0.8485783749652270
  0.0685057276582143  0.7473493669907170  0.7721254611263350
  0.9111185022945228  0.4732527687498190  0.0400326226883790
  0.4676586185840756  0.4177155526548225  0.5848773347069931
  0.8486283566533699  0.5214529933253885  0.4615286736600442
  0.5638328465923090  0.6616049988539550  0.7765023225474733
  0.0539262656899983  0.6359014501742740  0.6683617633096135
  0.8791204639082361  0.1328584407217884  0.7387283824021965
  0.4471745436299616  0.1952006711062652  0.4942919681910929
  0.3336705246707374  0.4267177686590135  0.3697576387074625
  0.7704192308005534  0.5073799451137960  0.0272201479406080
  0.3381703291265699  0.8821735927213474  0.2165890347251390
  0.6378351679450454  0.0708761287715814  0.3127190725150554
  0.9420448021875176  0.4750091669846380  0.6199816493497444
  0.2083325775380328  0.1443712402733692  0.1286839269248526
  0.2076104315303985  0.1228932392268220  0.8656180337622441
  0.0957438063432227  0.5179727110239685  0.2388576086470852
  0.0275741515337093  0.3204421744375944  0.5118541255745150
  0.4865597414447126  0.0181071467983870  0.8196567802480706
  0.3875851981100394  0.5752117626316310  0.7404644825594912
  0.2073572828461163  0.1525727250523541  0.5958477565916575
  0.6207093261179519  0.6932764057909031  0.0306568429138576
  0.1866799664695515  0.2965474451745961  0.2729595707019173
  0.2575655273294504  0.7074023034924170  0.1991179393592349
  0.4289099982758349  0.2086390226423838  0.8063642582946072
  0.2138427234581680  0.5819715438657840  0.8745728006824605
  0.4470437793176892  0.3265968494964446  0.4943419871234147
  0.8230863732219479  0.9881493713022674  0.6538579116801760
  0.0747484153674315  0.2139829664139815  0.2331845194440702
  0.2651774553778417  0.9020933438761023  0.6717777994023553
  0.6064794054246474  0.6502158034212445  0.6629647838271996
  0.2750444439729328  0.2474155202185641  0.2017288866578340
  0.0495269134403001  0.5161010048111390  0.2225099280727579
  0.2321711053350045  0.5604523414462800  0.7732085218500258
  0.8834245502037177  0.8962883916575360  0.6830268822338783
  0.9202390802993976  0.7628413066875382  0.6373863011004125
  0.1136735358396877  0.5922298570490395  0.5047257759455325
  0.3152130917138599  0.1729120784381365  0.6924764008271864
  0.1911683555845376  0.5096979855670903  0.5690892292992095
  0.9843644688612647  0.4679799613600042  0.0289110592700376
  0.9642637109968420  0.5100878576322758  0.4194862898985351
  0.2589533944136188  0.6361475597087358  0.3083665687869464
  0.3435744594913410  0.4734465874570434  0.9497209019562293
  0.9292652070664705  0.8915618818844716  0.0796496468949669
  0.2676401522221543  0.6332384913797796  0.4021268898252839
  0.2077170802368046  0.4539870998656781  0.0794131556697174
  0.9982825440442712  0.4576621692229751  0.2071739111310856
  0.5630469944165911  0.4526204992076869  0.9202991924042132
  0.8725431419067294  0.1130041089673486  0.4431279263435194
  0.6487483827708518  0.2626831940918740  0.5915853092882351
  0.5486750616689733  0.3829942943925100  0.2621590567615954
  0.8070767394378054  0.4506325539123731  0.1324556076823303
  0.8742932458753070  0.5360690989101631  0.5433390136633117
  0.0875112599189985  0.3503423227123249  0.3548700230581863
  0.0818550609511345  0.0573097829589994  0.3461272500045191
  0.1925374143583392  0.8652527428551616  0.1704052472417753
  0.1370505710153646  0.8662750210788159  0.7172231465497966
  0.1214103622421675  0.3583213293883878  0.3129291669284784
  0.6113591749940663  0.1495852670377655  0.7260640952591600
  0.9203234011205269  0.8897401946039638  0.1568089431427553
  0.7131131769149708  0.8354025762685739  0.4381796647290226
  0.5286807104237936  0.7558795502709719  0.1072127508740969
  0.2858257957831881  0.5724733471305961  0.4716956268723501
  0.9683414271727024  0.9145743151703765  0.8991554485526434
  0.9324569587136116  0.3852228370838018  0.7111731276337789
  0.8671162181044446  0.8955503610075821  0.7323423465037464
  0.4102809441423836  0.0211677151362426  0.4198302771352616
  0.4867893890520813  0.2136341560560817  0.1674634226574378
  0.0900543855677406  0.5634373134119240  0.6275651600896014
  0.6620642940686920  0.6085599025046370  0.4650478761284607
  0.0349429588929989  0.9352108677930872  0.8349347148926798
  0.4058675089375223  0.2380826876378874  0.7029036536061318
  0.6508245967702627  0.9834866235635551  0.9779813380087723
  0.1565721260309399  0.6243853638239014  0.2777226915028837
  0.9712843132161397  0.3516494071723637  0.8656592258241562
  0.4345570724198576  0.7604989457853935  0.8979253478104817
  0.6328872787723381  0.9648673646491662  0.1049001666930180
  0.6543480450750788  0.8289325919907841  0.7842179011458655
  0.1699625256866682  0.7485378287408193  0.6669114749815350
  0.5802141400381334  0.8422210915729218  0.7271733758848276
  0.2527025362626458  0.5091607010416445  0.1505098072248261
  0.6397962229431615  0.9926451161425950  0.3093450106119837
  0.8169868195479348  0.8017237080865455  0.0114450698482906
  0.9545386599677066  0.7614835328999564  0.1727806995969116
  0.7311142569472476  0.6091020660175245  0.2503940303191612
  0.1686879740169369  0.2392278530299674  0.0427745437977570
  0.0070478597208220  0.5422834391436815  0.2638622516867929
  0.6985667924331793  0.8268456516678374  0.3475812255063130
  0.1499103621647228  0.0213456911008487  0.4200551947319043
  0.3168713887813405  0.8438131312460609  0.5493678406415102
  0.9970061115435034  0.5511161196453195  0.1058700982231665
  0.1462409073674016  0.6909143054739181  0.1189836991409832
  0.6737246271241147  0.4278021701731463  0.6369941198961324
  0.2572983934559748  0.9128165389009365  0.0736682410676088
  0.9352648718525559  0.5537994510056962  0.5362023213382456
  0.4588800911186222  0.0502067314385646  0.8563257600924377
  0.2387866957303759  0.3105082580529409  0.6101315696118939
  0.4929890550790957  0.6782959776476986  0.7728760058204139
  0.6440708863372776  0.0914211538245373  0.5726867935201240
  0.7412106324404548  0.7725144393312259  0.5935664761429810
  0.2354272894117186  0.2755296797583044  0.6523656119182487
  0.1724460978932790  0.4027753482248775  0.6384744270324397
  0.4687722567786795  0.5842581502320495  0.5550064603569126
  0.3153895918778755  0.8587584753727002  0.7481951822945346
  0.7287511137932523  0.8687954091563129  0.9960505748885166
  0.9043377525876243  0.7326805981369156  0.7837083262895541
  0.1030975298100400  0.3337760746738647  0.9356190639943132
  0.2348487755801818  0.0324601734696684  0.6241147476196945
  0.4553418941189443  0.8316109698753613  0.9239826417017726
  0.0811902802901187  0.6536868119221074  0.8774082745138233
  0.1571565430648394  0.3101008067352938  0.8064701807395240
  0.1681947307330923  0.6086303684911990  0.8763473368324252
  0.2443567302902530  0.1034203157979027  0.4293349916017647
  0.6671429847978507  0.7861726991219192  0.8107355330889040
  0.7261013394381041  0.0314932424236860  0.2647624434918689
  0.3897662172289988  0.4700143501464611  0.6543420115180899
  0.6093207638362835  0.1019578020680859  0.5419420589994810
  0.9018117033949279  0.6139894706436269  0.9955654322135923
  0.1392625866022500  0.1151899791406154  0.2836605123298326
  0.3774005911569140  0.0900800747401673  0.7651499988519174
  0.6376092447555711  0.0992077198279968  0.7035765814312916
  0.7570953492484191  0.4912074797793106  0.1817482040263268
  0.4634332292387024  0.3868799050933773  0.2075590718076348
  0.5428247460404533  0.9784840599361579  0.3726046209901190
  0.0582833970073411  0.4443356433341359  0.7235461652974735
  0.4226831439981913  0.3879180493372617  0.4864516215932383
  0.1510284696607999  0.5156864026111345  0.7384688649633149
  0.4866402261154106  0.0686966413194812  0.0731740992679472
  0.8665466801200334  0.9069242118385678  0.9791808240358418
  0.6009040635692708  0.3698070989771001  0.8932815946030308
  0.5738410651139557  0.1829661631661528  0.8766124408981486
  0.3317704011493736  0.1011257298662985  0.2955956143154144
  0.9894597704942324  0.5069771493185169  0.9122698688423968
  0.5485987111021381  0.9710743305352536  0.2504768986173116
  0.8093855805789005  0.5068236288129099  0.4219315192229229
  0.4857496805526811  0.1745831316369054  0.4571483485302640
  0.3494598591364262  0.7813334884633703  0.2431618997855513
  0.8647068921685587  0.5964954701076722  0.0613673453785287
  0.1829825878490670  0.8361833632359555  0.9945607332423996
  0.9015699886735815  0.1963734344349426  0.3888401034753778
  0.0037716886136717  0.4067035662664568  0.7928897612828234
  0.2421661580393946  0.4173183062422061  0.1087960195430949
  0.7675730306456546  0.3785374697191789  0.5613042275512656
  0.8228900963989132  0.0674115262694969  0.8444894855356837
  0.6830864729201886  0.9958712069227224  0.6673577347336417
  0.0128014900427437  0.0696188816784920  0.0965207571601730
  0.6558959876403484  0.1460181313110482  0.9060541878184364
  0.5684598399192352  0.6651297134608551  0.4237891471361118
  0.5139150694605590  0.9199401585191932  0.5715686115356889
  0.9594518375656382  0.7533711548190950  0.7823423587826047
  0.0010783311494202  0.9494677905161260  0.6488880484418919
  0.4467615429296519  0.6118303138577076  0.3798967332739183
  0.5509054665692124  0.3283947005024282  0.2723678724310344
  0.1971472008745932  0.2027171609461124  0.1449719516355566
  0.5521378019621106  0.3535839815592507  0.7052253812331415
  0.5405113983537060  0.2345446582370148  0.3385595680407134
  0.3622739051229965  0.9377706602119067  0.3747459378143241
  0.7741153431189538  0.2309065537273197  0.8986701569010034
  0.8461700173779937  0.1130662695020061  0.1397753644579507
  0.7933731162371583  0.0388840331595974  0.0338312853288344
  0.5642197763673580  0.8032242760561985  0.7606999153749752
  0.7109852679951856  0.6245010069995225  0.0400523807253088
  0.9836042406806602  0.5539648151602075  0.5181169204848396
  0.8664216141671394  0.9915309937736648  0.4788751127590229
  0.4522149100989870  0.5863171946649672  0.4992882375522485
  0.3334620690011880  0.4200008927190039  0.2645219578284276
  0.0203984994697067  0.6274728690141782  0.8794283987797447
  0.4065952229499086  0.9137831743212487  0.0113869840595857
  0.6521886275799071  0.8958591152510279  0.7101348344131787
  0.2116144228540393  0.3668162424311829  0.7286462341853460
  0.7366018142728533  0.2462448239418180  0.6885636763640479
  0.8704631290010661  0.3396852361051161  0.3805587857988265
  0.7663461329028821  0.6860482790065295  0.1198533227861908
  0.7873815706820828  0.9841312458127175  0.6857815361969328
  0.8359133429386119  0.1070437274790044  0.0685103086922245
  0.3488708052022483  0.9987565134655123  0.3126214555220432
  0.7239146592039453  0.9216669476317518  0.7187099341732401
  0.7282315574969838  0.8220389924216854  0.5085836769772655
  0.9932115256159750  0.8984779769376526  0.0322816341868557
  0.2844588226834073  0.0014791797724689  0.8359327099116626
  0.7380269255359657  0.8799291095214675  0.9155489953333403
  0.9940062419062816  0.7672005888562149  0.2716420951159531
  0.9082334937051643  0.5347873032476271  0.2490195152731443
  0.4448627601987300  0.5679637846998803  0.8478291710615902
  0.6503092118220359  0.6240714326395826  0.2642116951957348
  0.4119391294773275  0.0754749794657930  0.0274144275445469
  0.5503571205226201  0.2325193197860413  0.2070112844237267
  0.2199945679594184  0.8804976046688684  0.8812490432232423
  0.4654487352264347  0.2754401261300336  0.9577139496877541
  0.5841239222111354  0.6999633746552207  0.5662651894307823
  0.6261812408884011  0.5252812107465031  0.5601731218367370
  0.0816900506163232  0.8985515714352458  0.7230150633057324
  0.3829441264834724  0.9582346233093910  0.6957080037457974
  0.4211870080858328  0.4568251435453883  0.2630459710168778
  0.1046464500350069  0.6072717380875016  0.8173317751333141
  0.3176486375517224  0.6260855233485151  0.5047682715537075
  0.4752263377920602  0.4436483020117248  0.0240682056652357
  0.0518668720929029  0.8689291902470795  0.9819270608144550
  0.0334852147458481  0.4018334056952054  0.7524110743742771
  0.3074877923847633  0.3888184273632324  0.2277345414950190
  0.8512123577885030  0.6549563170055919  0.1374435436584472
  0.2272993805082376  0.9321886516484992  0.5876444654699938
  0.2692462515728449  0.5269172357949752  0.4256800341010974
  0.8696200697664903  0.4669753741213483  0.0028873287853185
  0.9097415105106059  0.8789702208903759  0.3670968028311679
  0.7859638337664013  0.3986317470964653  0.2348538966547866
  0.1289702974167529  0.5986189842143420  0.6190798932891529
  0.7059502274437492  0.1860210052114957  0.4987662976285276
  0.2154980782355120  0.2294762841454236  0.7108975207095936
  0.3799991920101933  0.8393130660809759  0.2226083271935278
  0.6214929808871121  0.2231714964233397  0.8505233404780395
  0.0939344003307216  0.2474792077645583  0.5723678716158267
  0.6753478029308512  0.3009702659125514  0.9572635185876057
  0.6442197140763377  0.0615447394028389  0.7352298132089151
  0.4974456935315321  0.1183381550983919  0.3404555202140355
  0.6375181454938742  0.9426246195653174  0.7013218188380232
  0.7128512013602788  0.7170666465098740  0.2966034417976384
  0.8567862471209010  0.9298716167880364  0.8511357837565943
  0.8888560177958338  0.6492647360677311  0.8745873259122486
  0.9421592907935914  0.4342290629358980  0.8085841603363840
  0.6854737503021398  0.7784340291325816  0.0795265548835570
  0.5827124423175165  0.9235069590483000  0.3568044112241786
  0.2891513471431853  0.9602568332493332  0.1044998010804150
  0.7502800369434607  0.1135766916633886  0.7757998973325899
  0.8507433045988826  0.9528229696204732  0.0211974127134280
  0.7017177244601979  0.2366007231356171  0.8181647784395749
  0.6629015432113529  0.5099167206300282  0.5867211450297937
  0.6388424740087641  0.5674970406493544  0.6197485007895551
  0.2251925331716452  0.6796136022103786  0.8150585394272893
  0.2593708085491335  0.3798982975294339  0.7155155009452152
  0.8675901130373279  0.2921343824115242  0.4184965630872777
  0.4876032116061861  0.8938452480071690  0.1727102894766180
  0.4432154129198588  0.2923786669812178  0.3420905769138550
  0.4503602617201136  0.9781980991302260  0.9566607587955765
  0.2942183990664240  0.3522213287842275  0.1789713897768006
  0.4639634373701488  0.6025577796027413  0.2975205797041339
  0.6765796169052443  0.7346677985486505  0.5720117055325855
  0.3068528908663053  0.2500107877178278  0.8615168537536491
  0.0618994157189224  0.0547714245651621  0.4406003873836654
  0.7223605341049709  0.4569690922970067  0.1654470972977688
  0.3815359985659585  0.1577361928438339  0.2785567190240656
  0.2912603173979775  0.5248334984714176  0.1247579994002785
  0.3351197329176265  0.3915324106828800  0.4094357992337869
  0.5059101780801298  0.5691218924441434  0.9806016894625547
  0.5339751194373958  0.5867102324853630  0.4399388562772624
  0.6229787629177242  0.5365750238369380  0.3808520464638314
  0.6373080138362724  0.3429149395706010  0.0042717807528599
  0.9152365166720006  0.2789684348002019  0.9376129683582579
  0.1386187744139797  0.3343110128160370  0.9883145864800630
  0.7898769306713295  0.9193043258962617  0.4567124054157248
  0.8770140821238803  0.4909747781492686  0.3286252419700915
  0.1738268885834480  0.1021702521758271  0.4003360779691206
  0.3018148335363745  0.7714340601884191  0.7575214971438963
  0.9185277102769218  0.9240733685216801  0.1161465679436572
  0.3034095547903977  0.8228859995392294  0.4998780736141844
  0.0366601064187334  0.0137162675993986  0.7096028385611429
  0.7254911308102859  0.2582109317063707  0.0307803748721312
  0.9412661008941571  0.3852301741870538  0.8402152690717147
  0.2106302268033552  0.1838053117619395  0.2640709866876845
  0.1339098066491979  0.4891549903218870  0.3938421456842697
  0.9217092570190322  0.6921236239642291  0.0552072093919409
  0.9612216064606980  0.8126313362855103  0.4931904343546458
  0.3133311805959997  0.7717927961200073  0.5568628964563752
  0.6232944445784535  0.6503930857130178  0.4812029856755582
  0.0480493903063689  0.6184083434986141  0.3524077731440210
  0.4286314490615130  0.9961272234087832  0.6855722983996255
  0.9431372484443024  0.6671601171201650  0.6406252038780966
  0.4185437887061787  0.1006389391364559  0.3951242393002372
  0.2464235215123912  0.7044332720353610  0.0901473563494296
  0.5994080021452702  0.4439754921237475  0.0306022126866303
  0.3542979524696069  0.0479519967784304  0.1355031126244213
  0.7844087403187745  0.4571264117088660  0.7195304234353760
  0.4513206028741841  0.5337621572221941  0.1811773252514735
  0.8889747522383071  0.3193075305260662  0.1966774214234834
  0.3455343971640888  0.9329454533646407  0.0982262146692414
  0.5251476903649890  0.8517915047710819  0.5042545998377121
  0.7751021648842534  0.1355908692210580  0.3096891654475155
  0.1344298284977032  0.3547363536999564  0.4270875288675693
  0.9782801108122607  0.4594055692393427  0.8971915629969275
  0.6999775274432193  0.8929637527799229  0.3911095030309711
  0.8391372735563603  0.8831278630742500  0.5534125584748262
  0.9128674144493740  0.6030924570356611  0.0802722112791497
  0.7222936435595876  0.9619814621995132  0.7951497380611440
  0.3216803199224080  0.3893218569300182  0.6333299630832661
  0.3877763352363799  0.0080276824901816  0.5173482378756148
  0.8207837146145576  0.0664806219833592  0.1374634506720928
  0.4933923722928801  0.3770257284958429  0.5729540205040471
  0.1598356472109060  0.5814294175970754  0.0014682328935609
  0.7245744770781167  0.4601390560994654  0.5294254450259575
  0.0958979134446481  0.5242093232764955  0.7630576208788449
  0.3491972876748712  0.5893933776248451  0.0153901990748715
  0.4992257790641595  0.8111481241032453  0.9393600927925199
  0.8561315689434236  0.0307335007451690  0.2265320759336337
  0.4707413565194475  0.1441596188486095  0.8954563566999277
  0.0383664228716787  0.1480432928521717  0.7769427722076647
  0.1217030270003093  0.0787350136595054  0.3232894919178615
  0.8204796531376589  0.2662814845742780  0.0941045038070035
  0.4343692872696222  0.2670519921482710  0.4385344527776429
  0.3011108999322438  0.4704263452539394  0.6060187321752893
  0.9127029441551574  0.7982591800728188  0.0437114723298388
  0.3820292977160715  0.3213861653971085  0.1378715072076478
  0.2626555402890081  0.3909056283954318  0.3902042460175588
  0.6491858528967277  0.4027264466179241  0.5123571454553324
  0.2169715696870726  0.0207396724431618  0.7515917769258675
  0.4665534348180920  0.6243173187089708  0.6515697038142160
  0.6156243783667307  0.3335698536550518  0.9248592951857559
  0.6938300777550842  0.5803853887729179  0.3445394189236005
  0.3962282312524946  0.0313338094046716  0.3391845253633933
  0.7302947360337644  0.0464098410274642  0.6114533655226156
  0.5502359279643364  0.0877390732505541  0.1157277012851638
  0.4634765069746353  0.4809618668610749  0.9564110738199360
  0.7183080694824346  0.5121023207829977  0.0396224246125348
  0.9904070389414935  0.2936356207763981  0.3674524847400829
  0.9723633515685048  0.6321371810084062  0.5932345932644113
  0.5690045360362909  0.2724091762254833  0.8125132722382579
  0.1418337105625133  0.3298260687876032  0.5849226236285889
  0.7695989650034912  0.4199027543074866  0.0151263380336206
  0.6862011291169157  0.6469943309193062  0.2057111646251504
  0.4568807118603726  0.2999830903275518  0.5351240278694597
  0.7087605986985038  0.9963734074316030  0.6186202256326263
  0.9828101947855746  0.8497140244695870  0.0543379721550898
  0.8210141815938629  0.7621253990798770  0.4441661450757617
  0.1670764928823888  0.5308982288381181  0.9696200943242070
  0.7648418405153349  0.6523974929354248  0.0528256676135472
  0.1432889709884808  0.4409634063958323  0.3853183311586142
  0.0236828354901800  0.3611344194682055  0.2327976455352896
  0.8250935365135967  0.7672889320486700  0.9554600809547804
  0.5090247597884989  0.6887852792287645  0.9199179609885426
  0.9049615925849360  0.0427281794504941  0.2212149665929652
  0.3428523321057962  0.7748993330857245  0.5163802616648608
  0.0710957670058588  0.3387547275383798  0.4002527254966440
  0.6751527179215427  0.9634218435759926  0.7745671150095442
  0.5946926656258890  0.0696578856448910  0.8279132188130874
  0.4054219940689944  0.2826890351662579  0.0757021689573513
  0.8915239673103068  0.3904738938731132  0.5527438019977081
  0.5731161816591691  0.8665694735575470  0.3444692881346490
  0.7460278690334268  0.2330908503340261  0.2157654728182403
  0.6386306291189310  0.5890149022784164  0.0373978018710768
  0.6668935977756418  0.2742926329767696  0.2915187175114908
  0.2070169082947473  0.7048960682029188  0.0477417533882916
  0.7166821376064564  0.7253659158806762  0.4204491636567737
  0.0866877538783682  0.2878424377183781  0.2066007977054957
  0.4944606843217092  0.9447187852589796  0.7801601478499194
  0.9599038329213022  0.0427675139589813  0.2362784864993938
  0.7091461504389319  0.0635083037275114  0.7217508468956580
  0.6639781979362652  0.7858825669679456  0.9895598083588759
  0.2141810123355161  0.9708072152838674  0.7670653179982904
  0.5555326461170331  0.1139291333287354  0.3247043610317643
  0.5047262973640376  0.9316769911181669  0.8787407967480811
  0.3030808562891277  0.4888327909298426  0.3908667827167933
  0.2445329511229264  0.6396666876887944  0.1197702868892352
  0.6837586558617698  0.5970771869385981  0.7904516828407928
  0.9296099391867760  0.6166464331253113  0.7579872728457695
  0.4729512026329095  0.1689086271550905  0.0611650070653708
  0.4429325433807794  0.7879321886235906  0.6951244619501032
  0.5734580832218749  0.8874378339500050  0.8946319195548237
  0.7563667041315592  0.6620388935386523  0.4767853791226552
  0.7724889643128283  0.0197698596288336  0.7402634384815515
  0.0812418262337772  0.5280008924255292  0.6822774548651676
  0.3347155963319055  0.7861852131660444  0.0265112562051554
  0.4723439735394069  0.3860150952582981  0.0034034158445124
  0.4022768348897123  0.0255088268011171  0.1257773353337962
  0.8402616753186790  0.3382874620693487  0.4851713901862181
  0.5218172041512816  0.9475234953985348  0.6181948226207282
  0.8694504597755794  0.2098712276806559  0.0967885334957354
  0.1428159047385792  0.9351430833874093  0.9805902927437977
  0.4737752300920450  0.7318849134979565  0.5771433202400236
  0.7199771301176302  0.3956140002533505  0.9553319609792131
  0.2893806781750329  0.4163447061604316  0.5899366212189220
  0.7880606065525896  0.0013326124350035  0.4361321287473985
  0.6116260295361999  0.2097953240439680  0.5969196068174862
  0.9506229559702524  0.2399828111592512  0.3115235902372221
  0.8240707368714373  0.0979526468638531  0.4503007455221611
  0.2223486421558409  0.0800026099788189  0.9535900507300034
  0.3836257322023263  0.5252501491012639  0.8752580935750296
  0.8675530178350995  0.3566626226349389  0.1280574425908360
  0.4566746770624545  0.1420849132384457  0.9845761647743823
  0.2635901270933388  0.0065082421967295  0.0152948621239391
  0.8861681054014469  0.7190569754326401  0.5612151767194106
  0.8518928089378095  0.5960359886720403  0.6661049895306821
  0.4020457347593649  0.3770542947810929  0.1313076489768296
  0.6313256303492170  0.2822528499645555  0.9491194829546419
  0.4605441610338392  0.5308683590066050  0.2995077428716898
  0.5949624252139802  0.1739974296788325  0.0572584977245936
  0.0571005172285580  0.0356763642814802  0.0441313864808650
  0.1515701303772717  0.8306921559808134  0.8814412231865930
  0.9809745781821417  0.0456226899610056  0.3953078158582521
  0.1775010268362713  0.6311963185599234  0.6267045216025640
  0.0792460317277510  0.8181686518341851  0.4635028758533276
  0.3454724600945051  0.0771843010584269  0.4402935325933459
  0.6847142670051142  0.1969388941817596  0.8552673550152076
  0.7709277628198545  0.3723417888193114  0.8338649130966930
  0.6552539724837121  0.8228528522199692  0.3027471112016107
  0.4173783438586638  0.2873677047914687  0.9932308181006682
  0.9141874226395065  0.9747882455711891  0.6191592978786614
  0.1730687646989538  0.0071729250917756  0.7773227373212512
  0.7188548140293323  0.7903267658646147  0.4141449904636423
  0.6619695448774586  0.5439023318698394  0.7507362781355243
  0.3457241562558084  0.3448860877412110  0.4312325825189604
  0.0996563352744217  0.9414824150854635  0.9136984810583301
  0.6156818461348412  0.3897851372719022  0.9315113290102239
  0.2189881743780837  0.7214297275848031  0.5494536139856182
  0.0390025767256537  0.2417250007398032  0.0169755988092334
  0.6295554145240096  0.5608431818601181  0.4805847323050882
  0.9749829581387083  0.8076440427714802  0.8062105888122844
  0.1570378644886344  0.1394422059662521  0.8948522561174562
  0.5305795676430733  0.3190350893570909  0.0564078918882592
  0.0538113441203443  0.8469086439348107  0.2442216270311337
  0.8454785419517198  0.6283541407763507  0.7882415387738992
  0.1316267571020216  0.1693084992823225  0.7252006262145229
  0.8124956929857964  0.4725936585150473  0.8514764935055738
  0.1979852880112801  0.3257032126668629  0.8487906667852078
  0.5611984168388857  0.7513755372229188  0.7539821083304921
  0.2643366866602708  0.6821530593074947  0.3320095087781939
  0.7900516058705765  0.7864483805344625  0.3530607008450878
  0.3755362592915153  0.1679844500987746  0.0824552508948167
  0.4330163552253032  0.3913034707149114  0.3637831509863432
  0.6373485355029633  0.0778982207580369  0.8014497399062336
  0.5018155158028500  0.5537301395886814  0.3605830566431188
  0.5671209861745571  0.0022224688349374  0.4686155705178621
  0.8054851466948135  0.6938736534444487  0.8067431060828255
  0.3642037867433365  0.2977722386212583  0.9895444637571510
  0.0323326144845465  0.1631296899955166  0.4164200138902563
  0.9536453955799142  0.3838018971687312  0.9489591095201093
  0.0753097084217291  0.0795916204641722  0.3024400888124860
  0.2693689525203758  0.0552091879889473  0.5480516686018090
  0.4321955680097358  0.4144749738890860  0.7479008043041615
  0.6215143962900050  0.4667639016733044  0.7340683162443682
  0.8815582443968352  0.2150357103760120  0.1895990721047331
  0.7787387610047013  0.6721853996967180  0.9302766844782311
  0.4592384918526001  0.0851129117048563  0.7369152612828458
  0.1575930634641522  0.8416106594800300  0.5727373338709510
  0.8094935142094802  0.4424293000348884  0.9302107622815002
  0.0869423550856292  0.8372257533162396  0.7215263389849838
  0.8314337620719459  0.0683193950309576  0.6414138121230564
  0.1190149749402514  0.5665902193804264  0.3595822683107152
  0.9489852549337280  0.1383125341526129  0.2337309474154468
  0.6157413250886147  0.7140646167102738  0.9401127976489777
  0.2602205717359193  0.0239670714250745  0.9090674653600779
  0.7337244034959995  0.5049775465951938  0.9931637040902109
  0.8296319631829941  0.2081219803281940  0.7794099011092718
  0.9356282260623333  0.6310203770585923  0.1890291058122639
  0.4348264595661595  0.2000540904190812  0.3763285547101906
  0.2188126053185418  0.8533763935618639  0.6603772817392457
  0.3835778734323833  0.3628659385914899  0.8262396888764187
  0.9068687925002991  0.7788536965409224  0.7257221936964544
  0.8066021741097014  0.2288978820464236  0.6761687391231342
  0.2717588556169425  0.1683110815481133  0.0102990245624831
  0.4744492379983942  0.5710479751582311  0.0831047241982865
  0.9733691678650659  0.0873532980450524  0.8631404764905328
  0.6226090771975263  0.8504812545558328  0.0831155529433145
  0.7798848388791654  0.4169235179453999  0.9689112631105454
  0.7197891959906787  0.7417740623795193  0.0379038315471050
  0.8955108076895438  0.3483613420784736  0.5949568758313175
  0.8499378619850403  0.8486819137826913  0.8098291587501233
  0.3651782806854057  0.5144166368183976  0.7216353899409317
  0.4688443615091151  0.4836703007980600  0.2814676309398796
  0.8516864016981019  0.6985976306133449  0.2552725708306750
  0.9033143570386016  0.3246883460348183  0.2926763038372486
  0.7304297089382573  0.3725420135253142  0.2899907005819563
  0.9779595874082688  0.0439305751790438  0.8829854413339684
  0.6476694933952026  0.1850700868346980  0.8102044310971630
  0.5673013969773617  0.9776274438204464  0.8507303436246101
  0.9799201209878798  0.9327453031469960  0.7570452185835606
  0.7679845788229857  0.2809238473052080  0.1270704439156864
  0.2429896827021143  0.3587767139643359  0.6600880434455667
  0.5756544469425591  0.8537927089940999  0.4948893648213543
  0.5259484029681055  0.5283041717746700  0.1615835910171047
  0.4245842731123867  0.9476135518232212  0.5837544227118322
  0.5548421762835908  0.5532001921664876  0.3641311978385747
  0.8134541346867407  0.5030119105630674  0.8932935127402929
  0.1743437819209220  0.7601214387876173  0.7121463180295851
  0.2986944603581796  0.9919169179558823  0.4562968348670680
  0.4490926188455764  0.9845386226420068  0.1508075744354832
  0.5121372930670262  0.0162591616359029  0.9342223327955561
  0.3725993695608880  0.3543295727775302  0.1857734617761445
  0.9785706898963816  0.1546269091199197  0.1943898094643864
  0.7021258461730658  0.8723183360426238  0.8660929715321377
  0.3410016316098910  0.8266513860304655  0.6257521134586086
  0.7121735807685721  0.6432231343361550  0.8197009518442983
  0.6293315770085564  0.8654590011181533  0.4193817454882393
  0.0069422614166502  0.4274557620647884  0.5565440117962569
  0.8297106973772816  0.5003244823430069  0.3746026594579267
  0.9628064952514800  0.0101728575785492  0.7009878130412538
  0.1657343616499637  0.9251710289635170  0.2233311994626515
  0.8884575795694912  0.6330430339286817  0.6641927988953404
  0.8766221243846739  0.5865202499285699  0.2425269610229144
  0.6759326855169874  0.1273895799740126  0.5766091642256090
  0.6720799241819486  0.2292852587516200  0.4953927571439611
  0.3943307520678359  0.6520292969823847  0.1726749261287108
  0.1747084769211414  0.1838718112434440  0.6886365259780624
  0.5918367819844648  0.2590482553373891  0.3621873496511306
  0.3797906246081069  0.9004818627415544  0.0831151805015251
  0.3248248459506480  0.7436561597182743  0.3279894465913388
  0.2149137543120599  0.2658417611755759  0.3085612999765550
  0.5693804042901934  0.8939305371769507  0.6563271262558039
  0.3236318776548935  0.9371245481955868  0.2257382907478008
  0.3558707741464111  0.6906959800969485  0.0048548645615411
  0.7824099197232092  0.7952977464282673  0.4981159025316290
  0.5154978725773202  0.0475789544266051  0.9791616060395067
  0.4327972104763969  0.5481296206683387  0.1279768927428249
  0.2184418767613334  0.8040271115775147  0.1437371581268480
  0.6192976227592594  0.5166704683071923  0.6132814588019019
  0.1018499522369088  0.8515900882513529  0.5378613632893051
  0.7639009780668521  0.3862793054637267  0.1871463939445564
  0.5889778443203671  0.2061054501255408  0.3574961473597051
  0.9542602969742792  0.4491983178254194  0.0830291185150303
  0.7672738854003767  0.8328083702284101  0.4620891985531511
  0.4863374681847750  0.7384415277359700  0.6332457912388526
  0.1002300818510537  0.9117686366821688  0.9873170383912274
  0.1084596673630518  0.9341375650442796  0.2301285973175379
  0.9140368071798570  0.8768026096758363  0.7168571852474932
  0.4121574176101180  0.9518615483852133  0.1694678671240238
  0.8322306385246312  0.3840854371030318  0.0629418709765196
  0.3153105224859774  0.5934881516346617  0.8157286366948494
  0.9666691635381178  0.9101174532528664  0.1476415771380820
  0.3321324518128880  0.5369527542997878  0.0221699583193862
  0.1544023918982006  0.1419339346480516  0.6053767915070110
  0.2837090042508176  0.7750502464988055  0.6519349202329406
  0.5397073710186634  0.8222756419346954  0.3150068334508683
  0.1338282139641764  0.7377357505449816  0.8726863085305903
  0.0299417546781332  0.7167542423368919  0.8047502445558909
  0.5008307052232134  0.0258933263934900  0.0980444258318158
  0.2429709861242844  0.2019058709961758  0.9177023047831654
  0.9506260844812837  0.7447252166306821  0.4517622815922807
  0.0785832994965771  0.2664347257485430  0.2461468717511953
  0.1399497417037665  0.1612185421971853  0.0463224522170945
  0.8597074570521928  0.2256834486943057  0.6734908826570623
  0.4317403324105036  0.9152094773980871  0.1074771007451965
  0.0830945937816138  0.9377109950372384  0.8572246855954293
  0.0151340149900054  0.4398895822285195  0.6856845523549628
  0.6192836189479765  0.8775759478074291  0.7590461248531469
  0.8881468141403825  0.7207335593919822  0.3141369584074526
  0.9825509753001247  0.7860652124214869  0.4233225520623015
  0.3377820585610790  0.1987788497320394  0.1030754719450604
  0.6410395826130273  0.1162556282106499  0.4033175862261228
  0.9448156201242337  0.9843556047466760  0.2507152613625531
  0.2031896964664641  0.4590511536325119  0.4850185028316530
  0.7493300124269576  0.6980309231865334  0.6433578092872162
  0.5098401838422983  0.4812343825184080  0.1743292380690443
  0.7640100290228001  0.7238311577547528  0.0225343507106517
  0.9005933718133127  0.5812167160911264  0.7934305467610901
  0.3942259097041085  0.4253445385371701  0.5880054360523188
  0.6535811874306223  0.2280836125621714  0.9026639246975240
  0.4936988546414101  0.8930661742720188  0.9998336896089302
  0.7587789351134027  0.7459916676914932  0.7199821208376087
  0.4350504833025075  0.4304186854764976  0.1395660521722856
  0.1307606250985899  0.4867322192374022  0.8000361743385939
  0.1030058998187931  0.9733595588668982  0.3315041797582820
  0.6737149436375892  0.7174050471197589  0.0595574645027461
  0.1623091262450229  0.9216813238848242  0.4048229959390384
  0.7433919495128458  0.8346331860199493  0.9401459449682380
  0.4731842022163830  0.8865952961339343  0.0830562602104357
  0.4060895959765653  0.2503025213714959  0.0264724943259195
  0.1694174571278231  0.1711740229614474  0.2876026969385158
  0.0828026739070509  0.4026497980976573  0.7693062257569916
  0.2364603870693562  0.0993891082904987  0.5282646557008105
  0.3495775879860681  0.8480257458380563  0.5014474688265257
  0.3450875415051190  0.9944577158434407  0.4380744499235059
  0.0835240843421510  0.3646093013636785  0.8331125806820245
  0.0091980651011081  0.6172975358616098  0.0038068622490425
  0.4766450430563943  0.2632571455114902  0.6895263639013919
  0.7667844968890528  0.9545740419377032  0.9332889191828622
  0.6965322174258277  0.6790623138736498  0.9804316325414965
  0.3818205068489117  0.4815367680072541  0.1323954024670674
  0.4027779553174036  0.2646824988617656  0.3995465758638662
  0.6593666981877798  0.3911045495551716  0.8878672593332292
  0.3070957974013779  0.3108265095620172  0.8812419668292427
  0.1055365393565443  0.0505265006479328  0.4841711605164986
  0.4792364930273163  0.4936580350212875  0.3307449944146880
  0.6274206526752988  0.7412866105655005  0.4667366016901385
  0.0113171989431700  0.0521447928117052  0.2067461244917351
  0.7293782312783110  0.7828410583386646  0.5428541316976401
  0.9675216827941456  0.1253437106693962  0.4413181199560948
  0.0304045392068852  0.3620770323930986  0.0189338977381078
  0.3088322141341935  0.0118931790066580  0.8866513113790661
  0.5244528629626101  0.9661382850114504  0.5002257852688053
  0.7828224362491928  0.1999233261068089  0.3148242997298638
  0.4974176486647873  0.9584250900405105  0.3886631563812149
  0.5187061606399123  0.5218638711074984  0.9970186255876284
  0.3670718864754544  0.9849901710675235  0.1865900217774017
  0.9856907340734598  0.5185764019204715  0.0589640343775423
  0.1554607504202069  0.4549593219128318  0.7391558710881155
  0.9598589164414959  0.3986750620765771  0.0643689654921607
  0.0462994446255519  0.8543918188565925  0.8874284484169110
  0.4586981905486598  0.5435028135623073  0.6558075699595354
  0.6987939074363797  0.6466433417769382  0.2527208603986862
  0.1197061058578700  0.3103058359403804  0.3847907301196938
  0.0127112066613417  0.9570942065501266  0.7022783238416624
  0.8020573414415256  0.9616363576374183  0.1199507908024872
  0.3365499466332542  0.5006394563643360  0.5790158458247899
  0.8870524311862928  0.6948555589781277  0.7139604819859462
  0.0731132422795528  0.6447897734792543  0.8248568870005869
  0.7338288361737584  0.1692746629457519  0.2967922139186160
  0.0547150089451067  0.7065961159949956  0.1691856866022547
  0.5970898872036181  0.8802144744205362  0.2672151030299562
  0.8144015521107175  0.2806278305709613  0.2494099832451930
  0.4521194160241746  0.6259512208392430  0.4300603219866986
  0.5600238471675295  0.7376620070706728  0.0428140412495271
  0.2629698625372058  0.4219184837602925  0.7927140432465659
  0.0027448319747386  0.7834248980877904  0.5578987688053441
  0.0507805478480320  0.0953469603055298  0.8601664543134984
  0.6163765245605043  0.9071744927210712  0.6720345607719949
  0.1099259986212104  0.4434224905547874  0.7079836851257325
  0.0669904435823563  0.8891445856942917  0.2122532908775548
  0.0711696082461376  0.7298514558159733  0.7068038640251452
  0.4389852563195808  0.0087977792143257  0.4566594814374454
  0.0933494898114512  0.2394883015733226  0.2886729084204710
  0.0950816979520461  0.2947671734210740  0.3424004857268479
  0.7402067528411990  0.1966328587633769  0.4014341853411049
  0.9579078428833365  0.6694019932275188  0.3711108314610340
  0.2986297299751750  0.1331498764220250  0.2816818035908970
  0.0116545916324623  0.3143286541964773  0.7525790456213145
  0.7646956198688009  0.7140043556287422  0.4214982204450887
  0.0414114859922877  0.5159142624979138  0.7169187871194665
  0.1743462027925533  0.5843845569753854  0.4690735621863362
  0.2777722448829686  0.8152015570744342  0.0038534040880956
  0.9654283364724204  0.6510134992458666  0.5321092233164815
  0.1445423679645720  0.4604238250916711  0.4947181160865699
  0.4160590433079313  0.5073941351459738  0.2836128211586948
  0.2030191367489902  0.1279823024598165  0.2429159578498947
  0.9034907454700805  0.5803795414368237  0.5683554444856552
  0.7894487715901893  0.1136536940033553  0.9611698370519659
  0.4707543174937200  0.1896463535899024  0.6868565521779719
  0.7513384420206906  0.0935787091107619  0.7247113121915569
  0.9746976677279974  0.8994399195914176  0.3633390141524363
  0.9102850520581144  0.5241270881293871  0.6460040082011859
  0.7472968526984060  0.9807079843492608  0.9694445252646652
  0.0964381123270963  0.6674757987808941  0.0245749755693205
  0.2503210131063416  0.4027186253403458  0.8843048536172375
  0.5869939958847372  0.5864422978620401  0.8977156630830273
  0.7412118242541810  0.0249851713174036  0.0255700469202562
  0.0792594768763498  0.0337107375603986  0.9724363501592350
  0.4233015835895561  0.5593019432470584  0.2245278921763004
  0.7677796613504358  0.4571810116751979  0.7779462793651313
  0.5521432768564154  0.3933549918236825  0.1839513834317578
  0.0361974499168466  0.6672640283794187  0.8501729472425346
  0.9050503827075383  0.4548850570200175  0.5174150539326403
  0.6213356242310738  0.0458158149953972  0.9180371299518717
  0.9984759903097062  0.2463164444979272  0.0612317300119490
  0.8672637050530627  0.1577382226515864  0.2706640071106158
  0.1555599782239584  0.0026627434765849  0.7277476066357857
  0.5636922870609745  0.4323067418838836  0.2430630164904551
  0.4218073098861447  0.4070097879057341  0.2558732635707729
  0.2437332999789098  0.9792834689930114  0.3713463264044968
  0.7950975217222646  0.6605781023521116  0.8706471152450495
  0.5031886714363355  0.9324619494335901  0.0632714773046514
  0.6661502784522779  0.3021320980747088  0.5278906496558550
  0.2098849335385072  0.0321340541277902  0.9226256872861277
  0.8209717977182248  0.5793765184536834  0.0922809822506827
  0.7491573484133736  0.0177006673210342  0.3621740534792476
  0.7620122512642451  0.8980783468975836  0.2409082545176512
  0.8932679632335373  0.3936624797650440  0.1469474015088346
  0.9526389088881322  0.7094737502369232  0.8738379730318958
  0.2045252541013057  0.9434392987355380  0.5099719165032233
  0.2219494031796510  0.9776135889858795  0.6068994080305987
  0.9762651262430336  0.2499298933611614  0.2455051731700801
  0.1969259332074871  0.3940282176022739  0.0746828190572664
  0.3388311153493940  0.2611279330454419  0.6465665442799556
  0.1515113404408086  0.7061385340124899  0.7111116747385214
  0.0671482704461537  0.3878769690078865  0.6230993223249659
  0.6538938150686781  0.3470739225449171  0.5460296821269405
  0.2848947657979465  0.6176273330661588  0.2637266270091685
  0.3937900410779271  0.9641292595108545  0.4950629599394122
  0.6170008859763211  0.3630858282239752  0.5123493614219331
  0.4234388656331436  0.3821748852115635  0.6532367532637484
  0.1914722308405415  0.9509944294110396  0.0367031560340703
  0.1842182007297124  0.4005914240599605  0.7944416517310611
  0.4601041955479739  0.8072114888772248  0.1496252300417724
  0.6915299517518620  0.2754351167879657  0.0736086969365221
  0.5332608878177871  0.8411534499393137  0.8091269570003136
  0.2884108397553317  0.4542606211158428  0.6482970578104087
  0.5831366162715095  0.5245982642372075  0.0457493620691164
  0.0042137473387816  0.1281075173894262  0.8286893875022799
  0.7132525446325791  0.5117748327175433  0.5766464456487319
  0.1731500873636780  0.6549400785435723  0.9701155163925198
  0.8539178494353514  0.1028721187280263  0.0133349954479073
  0.6335437446704044  0.1381309501581715  0.0852314040601666
  0.2285261106522048  0.3651459154939035  0.1127205038557350
  0.2785685068067014  0.2731255121412022  0.5260031519111532
  0.8455333653831253  0.2501118497973922  0.6241817126534358
  0.5299810909316226  0.6001100549183641  0.1255161325958174
  0.8412437298290738  0.0409638714831718  0.2758824379991723
  0.6155188656077824  0.1221207018450765  0.8807286675550369
  0.6669931887101382  0.8672370382209390  0.7527679480969184
  0.8830556838554565  0.6696732798269467  0.4691261137228263
  0.3749864607219443  0.4387039510360169  0.2230892240320524
  0.4147207109817583  0.9900375766863693  0.0547901816647828
  0.0983896514374923  0.4644982637797844  0.3272398702459123
  0.6779334428098578  0.7239501901506578  0.6681005326385004
  0.1489700583789242  0.7055592380531953  0.5740252748230127
  0.6877499655424799  0.1758608304397576  0.2586581411850404
  0.4115097785824612  0.2509790991261922  0.5362384854360003
  0.8192575226497912  0.9324784113606833  0.9207794188475168
  0.4883656371933482  0.1325932435456178  0.9507598655720505
  0.0767629530065113  0.7575538995795775  0.4860142259557202
  0.2373641356935212  0.5338294202093670  0.5928148886118915
  0.0719278298966015  0.7707949500777402  0.0218843885773332
  0.5480737171557438  0.7439164965290926  0.4656626657902889
  0.3604996296822843  0.1255180227378988  0.4739510971050185
  0.8917686615659686  0.4156412381085377  0.0178763120328146
  0.6956376867359513  0.3322384115019836  0.6972693542154869
  0.0066889788860999  0.6107020387007788  0.8204508261431563
  0.1974417837079506  0.0060883705273449  0.5166759059573182
  0.8698440562586593  0.9604404470515270  0.4010797324900950
  0.5820294213198629  0.1675782837053011  0.8202891864065395
  0.6909963916443108  0.6426737082083732  0.9077876063948470
  0.2057889490928749  0.5701946737744457  0.2162582691719375
  0.8882275595203331  0.9440873474491632  0.4875572150451903
  0.6998737651606813  0.2948092220991018  0.3336274703998782
  0.0867031450353168  0.7920096068460194  0.0918532142334216
  0.6993700003962852  0.2396751556190845  0.7277096920616209
  0.0306568568804247  0.7927171717575970  0.7902387206255911
  0.8964835511552025  0.2564328759814957  0.5311186398891085
  0.8472944936286703  0.7556221185061112  0.0574392018253074
  0.8572873303044133  0.2733774876338477  0.2932105157179316
  0.4877527842288251  0.0760202482120999  0.1315216260959075
  0.8769201523045835  0.0710677221391140  0.8448048692429811
  0.6219782352945732  0.1964020938306400  0.1749924824076787
  0.0403449989282269  0.5092101985554610  0.8901539774320314
  0.1234912596970807  0.6075696542748745  0.4445188102061823
  0.0817629095413824  0.0072510651250209  0.2064423609682680
  0.2844902940146150  0.0319333755083565  0.2288368760813134
  0.5041185096078509  0.1639153000840714  0.3567909660755798
  0.0285999493322738  0.8668333113211861  0.7518144971159525
  0.0296950911365096  0.4125752972978695  0.0336692708226669
  0.4502559035307126  0.9282684783495718  0.7608212569099746
  0.1691894482643281  0.0709142714663424  0.4414379344797576
  0.9574609872243667  0.4216303255478031  0.6886915728745415
  0.0526922682756146  0.1300311885429274  0.7344850041183935
  0.1420574549675193  0.8080167825143515  0.4510550891224925
  0.1662058915774839  0.2383839930455442  0.4145985873190011
  0.1360421941815012  0.8055112176200744  0.7249428964962306
  0.6459123875209837  0.8885315465088738  0.8005825464437020
  0.1660300431865999  0.6963833896867676  0.1695207724802137
  0.1274802695497412  0.5088136970264234  0.2862890388808933
  0.4416678800405576  0.8350454790808591  0.5301431403542078
  0.1885256948675676  0.3588451687652349  0.8960810160691761
  0.3124953094879600  0.7711201662482791  0.9035244886962035
  0.4785275500811177  0.9007641736179496  0.9256096164147612
  0.1063004453998194  0.0419782260077558  0.8484860094014460
  0.7542851269703802  0.2322909571028463  0.1066883900787447
  0.9276234091702621  0.6212169642769583  0.6297481903942237
  0.9290335482734390  0.3740400488907989  0.1896545845534491
  0.1250736996830971  0.9619068993532673  0.6979638091760765
  0.4565078976291434  0.1002654638210505  0.9439433614533658
  0.7869978811506020  0.8642949715494382  0.1423338347084178
  0.5036185065055280  0.8530879746401218  0.3462132840578797
  0.3963110623064660  0.9600367946401321  0.4220066779760319
  0.2431247859612336  0.8857689967798832  0.8142957041541588
  0.6902755678050289  0.1276182406106391  0.4209562431530959
  0.4424839000012202  0.0224427835689567  0.0829675538872359
  0.2862747929824472  0.7510424252864438  0.5888800783506392
  0.1161054876142820  0.0622580259514069  0.9619781847117660
  0.9334221043667658  0.1742159785208757  0.6382616882823118
  0.7032778086278032  0.7898301519825757  0.9460040073859783
  0.9285631542933765  0.3135308093951395  0.7970561930929283
  0.7734544079194141  0.9963900928237700  0.5335830499656525
  0.3566638889370231  0.1590549161097928  0.9392191608193959
  0.4993852213942186  0.3250867470169821  0.2504873083653265
  0.3461989078048073  0.3852048109011930  0.4601349592397816
  0.9546187349524360  0.7995245882966195  0.6984193799729190
  0.6355739248646407  0.6795299517844704  0.9823024076498524
  0.0700932235415224  0.8739567819627271  0.1608418731934354
  0.7611977210707404  0.8181442941411557  0.1334731279621245
  0.4613797341884473  0.2088646106342475  0.0886610435892675
  0.9358446147419979  0.3574801323627592  0.0469715670453420
  0.3088947098664615  0.7316216716411804  0.1061894763686559
  0.9627872027667872  0.4156433237825586  0.4711685100077560
  0.7663975298698250  0.9486762027368507  0.4138726610272040
  0.7838838208607383  0.3102819065554089  0.0888620411119834
  0.5773686475226346  0.5331883734013833  0.5684906780994008
  0.4040060448739023  0.4143081944557749  0.8014898146427775
  0.3731129295443464  0.7232202042433559  0.6996734659663206
  0.2340797950175255  0.5367427716189017  0.8830917362206745
  0.6174925091383816  0.1615477248727817  0.4436273707831582
  0.6359255099138719  0.2002549668982155  0.6564551717430133
  0.6892792115299198  0.4955354023493165  0.7360113450598755
  0.2881189571249477  0.3734795239976920  0.8987628949065739
  0.2199040832266740  0.8215415591677097  0.6205255633390423
  0.7080712089462509  0.0263855687400254  0.9689413564071320
  0.3409115751852045  0.9998946955740402  0.7219028031457495
  0.4662336562976790  0.5030772368529352  0.5566215541768182
  0.4562379890643364  0.9775937005943234  0.2063087288542170
  0.9503565856024451  0.9246493869932276  0.4773782692072643
  0.2765578425622319  0.8420569937204945  0.8786310009085542
  0.3525383512353986  0.8737834475539218  0.3729228724991954
  0.2058460071750171  0.9793741958129192  0.9366558674477558
  0.5292506208499944  0.5641350831044394  0.5548972604242489
  0.0929715079503935  0.8145176049723070  0.6279551066431448
  0.5455363084884696  0.4990502472487965  0.6096774513380301
  0.9426430926780737  0.8010349887295136  0.3956312443082016
  0.1170654656376078  0.3533982820830361  0.1366293952177766
  0.8686880714325962  0.9850032810185118  0.2979072487699302
  0.0400641871300340  0.6650719104951340  0.3869061994837117
  0.3872664996708158  0.7815433966558986  0.6991001290756571
  0.0198103929343306  0.8021751075353465  0.1867401158185460
  0.9150175953881677  0.6281509365360323  0.5222332588742649
  0.2707818849369735  0.6195290208430383  0.4851838297419853
  0.7118535042947275  0.7833921232103197  0.7157092451640817
  0.1633622612709323  0.4223539054563266  0.4714891079001058
  0.6274397216949181  0.6700781985404256  0.3514339495971729
  0.3872614717066583  0.5540673111406613  0.3444375560941887
  0.4571722965373250  0.8790825493340709  0.8461143745746516
  0.3032018998706956  0.1213987606804264  0.6972692052387711
  0.3219181984933231  0.9284534329422076  0.8823088635792720
  0.1346714780417365  0.6425004482879259  0.0997043057769016
  0.2712965994899793  0.0916058570189652  0.7955164442470264
  0.3929947288807574  0.3034191265443864  0.7562715080101783
  0.2165352168865650  0.2679126865015768  0.8993655057218874
  0.3876495560512546  0.8110398180308762  0.7496335524853511
  0.8860742500705082  0.8212728796608078  0.7909592465114413
  0.7123189820431693  0.2576310025960339  0.1179564860636188
  0.6355538130080109  0.3859999368774679  0.3848735611736652
  0.9150106679708842  0.2777225425261679  0.4326576937820727
  0.2449846299030695  0.5855569292401839  0.3778272977150751
  0.5625647567876245  0.0029729976711434  0.7712099992078921
  0.7495608518480524  0.2875188975358918  0.5584322171803586
  0.5852491433453908  0.6376385186802211  0.2786068683110137
  0.0236073648170724  0.9255884617211211  0.4361175662734315
  0.6886828577366686  0.2195193881023617  0.3863009443316932
  0.3348748524410698  0.8414371760945090  0.8217021560673162
  0.3072471018783378  0.1147370247473435  0.1375412351398173
  0.7903103039375214  0.0079881605969191  0.3306025726744062
  0.1544841149378484  0.8320546970232998  0.0389034117714542
  0.1609639968561927  0.2981557233097550  0.5123672013836473
  0.8135758486635296  0.4102648919012588  0.1026710653390420
  0.5143316083578684  0.2535079416323093  0.1768592723888877
  0.8532071560127424  0.5232849972434638  0.9345783126579026
  0.2186588427257716  0.4957660555495166  0.2041695349482118
  0.0996515773305616  0.7038033239927025  0.1867211399093740
  0.3715654339092242  0.6656483014084711  0.9375727446449984
  0.5659023193953312  0.9659691219506868  0.1950067779106828
  0.6622926008856187  0.1006962672388955  0.5166180285032392
  0.6307803755694771  0.5700313580497763  0.9166758552114693
  0.2689487450714404  0.8919623312964773  0.7252845745938626
  0.5258761120167753  0.2953796725658972  0.8859403944913834
  0.6763332094173509  0.8492000548001599  0.4862744137898228
  0.8862539904780917  0.3348136230108860  0.5274051717833202
  0.8691954116381710  0.8742503405811635  0.6390546913403869
  0.2833143835528167  0.3876869492069143  0.3101604346657831
  0.3224119818177624  0.8222906140946309  0.6780072607725248
  0.9912797445425088  0.1043392972912559  0.5606975571204471
  0.0114301826516383  0.2407054785853907  0.8979056828839993
  0.5277868501291382  0.5833674184484253  0.1794271095503591
  0.6874756249203785  0.1521472475520980  0.1000068867976872
  0.4082868163133652  0.5287754596150271  0.4300153310185343
  0.9686989712905646  0.0596595926969329  0.9573386773407146
  0.0451403545660692  0.4926744162553770  0.0303443991689354
  0.3897672228218302  0.7552779822926687  0.3852590756699143
  0.4192543703962509  0.2958695266294579  0.1200661546467662
  0.9355956001615784  0.8108623122740293  0.6512923091694413
  0.3798280550079457  0.0774698475228680  0.6114249854582603
  0.7068129516048075  0.2801611423867038  0.8110123318268156
  0.8489111889482704  0.8512516131531102  0.6987145028468711
  0.7286434036277463  0.5972557727766346  0.9925335325824790
  0.9050288555721087  0.3648278502057218  0.6759057952197898
  0.7477179353855465  0.1295444443683085  0.1105804719557035
  0.8549681352815717  0.3724127017360208  0.7058943611753332
  0.4799023444584767  0.8134659038472870  0.6692629234633419
  0.8100815253066477  0.2945117714639657  0.3165149619888467
  0.6550939714909688  0.8546304050669077  0.6437538638861064
  0.0377382904827438  0.2522702058334642  0.7857492328073261
  0.8820310964927077  0.0476429445815532  0.5004365500774492
  0.9732772492314320  0.2277736478829102  0.7099939024400548
  0.5247187864002701  0.3889062491371822  0.9805317448944978
  0.8174125205132645  0.5980160382014180  0.5137254221013763
  0.4243742159431426  0.8177527088437387  0.2066713940466840
  0.4837027404779201  0.4891298505010997  0.1318708554508204
  0.1092133964344306  0.4394366557683818  0.0903415195653092
  0.4140853625331530  0.2220024388904672  0.9328302943633460
  0.3159176770911221  0.0870820952450270  0.9731134493324364
  0.3126041369788343  0.1043921467811774  0.1887333870314487
  0.7852373488119201  0.6411879634219401  0.3236297174925147
  0.6808200901430898  0.5434762957068993  0.2992976298361774
  0.2240892116146088  0.8600200846902485  0.7101349833898946
  0.5980935805819794  0.9742473856045647  0.6986400889773411
  0.1389559273438701  0.6922617998681112  0.0056722267674964
  0.0081915539678337  0.2173893562643766  0.4869300603159527
  0.1958965785898334  0.4025693879153173  0.8443171939638887
  0.1479397912788864  0.3622809070286379  0.2154579476326998
  0.6018880175327918  0.3615543103416198  0.9726803740196758
  0.6226820385440776  0.4405965139890552  0.2391239231486242
  0.2632277598543034  0.4996243290230390  0.6410278134524809
  0.3966219022239325  0.1012852373736708  0.0725675545362327
  0.3516337646172072  0.8954625392336323  0.4212413473429121
  0.8245262331799221  0.2213063824301832  0.2829802660235103
  0.3536055086946804  0.8446450917153114  0.7158617228326786
  0.7672663620762301  0.9415010371749355  0.0722864680622201
  0.0187331830383757  0.4906570853028764  0.1768610973536559
  0.3520549962810636  0.9003048039148546  0.9124565366672640
  0.9526365252606798  0.6864949856887836  0.0948434003841178
  0.9345124649495297  0.7171807626741583  0.3379538659585474
  0.7918850623116307  0.0333426649787012  0.2785434414742721
  0.5663881324654764  0.0765067130553767  0.4941521162991583
  0.2479862313946121  0.3030174666965650  0.4287233676951467
  0.7250225245508128  0.6130159078060313  0.3894621929962790
  0.5707142300707141  0.9111059137620396  0.7677551546806907
  0.4069447968134768  0.3806639633601642  0.2140011415733062
  0.2482833840763166  0.6376611631410191  0.8022252382002051
  0.3934569663856311  0.1256056117357303  0.4302698577374375
  0.7178410274784771  0.9170988745959152  0.8701712091265033
  0.8664255620501075  0.5086431559310389  0.2253521058563307
  0.2507067138234854  0.2346069491262986  0.9708100458414671
  0.5199284773486746  0.0997417082436061  0.5804511992371119
  0.7670357461202089  0.8537162094505489  0.0968818953413033
  0.2832136008045943  0.8109160183800664  0.5604457492266069
  0.4464007958124004  0.3366935974314411  0.4445949745521227
  0.4435958249635926  0.9039609159850691  0.1495214770702792
  0.1277811373382954  0.2626194693017009  0.3194001567990998
  0.1937816678884996  0.7754659660241782  0.1784616473216839
  0.0046139639746688  0.1535316136834457  0.9665961649473876
  0.8638419333567637  0.9089765150750967  0.3935727585379680
  0.3604191077674075  0.9274412851352261  0.8490176328116923
  0.0695939653227784  0.8056242909473482  0.9745247057609816
  0.9649796186045032  0.5818815246852764  0.6707493386449961
  0.1612585052011922  0.5567786873677829  0.6960097560836016
  0.9594851338616139  0.8501838225427861  0.9418906857750474
  0.7508423495571568  0.6432604530034567  0.1579446857575623
  0.4234935773320123  0.5622213654577610  0.2796091277884856
  0.9724696464552109  0.2779585775102254  0.2103899646049876
  0.7722863559793729  0.1791967729256801  0.6665628694666194
  0.5720626928135598  0.3246763534091984  0.5102931475466150
  0.8789824369810695  0.3721467038100029  0.9580009533306965
  0.7133080384592057  0.2003302001396824  0.1227703334363068
  0.7234430734101566  0.7948152853342271  0.1693467118099190
  0.5822468528365379  0.7314338864909449  0.0940173617393193
  0.0025731220522696  0.6656607409642383  0.9886081450984994
  0.1230857357656939  0.9651382043184467  0.1917639272500307
  0.3880675847157218  0.8028644972875997  0.8158276317224825
  0.9491176207456947  0.1604070474042645  0.3711894911669638
  0.8930521704607359  0.0826840325750248  0.4042045563476737
  0.4272978839902449  0.7054060899893777  0.3323133840341978
  0.5195278789599532  0.1491202641526052  0.7848393575157248
  0.8302350209284550  0.4515139374070823  0.4815197101732978
  0.2471888707676004  0.5312476164807916  0.8278791776335326
  0.2120300865131435  0.7937681279990382  0.3558344238277616
  0.5092150775429026  0.1356203852328711  0.0316945891105796
  0.7027756081189225  0.6825001005668947  0.1414871069222159
  0.8065235144037717  0.7471849711848584  0.1663500451720866
  0.1222987197093840  0.6245746014971157  0.8911045978553974
  0.0643290350768104  0.9028137207852367  0.3206787867064255
  0.0812145076285218  0.8896183316504591  0.2612835764692488
  0.0820166634435724  0.0750957871689196  0.6359121020094520
  0.3225140681122479  0.2660048906793505  0.3748000163621508
  0.6379381853440044  0.4071526938203422  0.2829111594494798
  0.9487847322742936  0.4675090459614366  0.1975139629267441
  0.3778579496743460  0.0414955786928208  0.7727669548644660
  0.4471855306627500  0.3382012790392723  0.2222492001980605
  0.5512579082345592  0.9633828116764591  0.6859436228636971
  0.6312745313357058  0.2760181744093336  0.8364801248537813
  0.9544197765485173  0.6764029305203342  0.0144960780709635
  0.9782985094366591  0.9371912897642544  0.3986840751678816
  0.1356303387396939  0.0698680126469706  0.1319734817859005
  0.5509601782680810  0.0617009880445536  0.6915026890128750
  0.5185024722252677  0.7245702312417172  0.9646860599860668
  0.0606905301921917  0.6489276762482881  0.9944171196883915
  0.4341573306472519  0.5172736750293691  0.9384502919892764
  0.6625761035757403  0.2921875484769668  0.7906918333066235
  0.7469772976430666  0.3123216398815443  0.4645687670105253
  0.4544125773659342  0.2544258058002942  0.6458998734768585
  0.3176135162909782  0.8904728620921497  0.4694778849929521
  0.2727034424833196  0.0727681516840250  0.4918265525217174
  0.9195544578020494  0.1155878587042739  0.3680773675744049
  0.1637154850640370  0.3721140406650690  0.0400366729928392
  0.7801125497892288  0.8318790534754000  0.3646356702423709
  0.9804239602406339  0.3304336703228953  0.7863896837084468
  0.3127921455941436  0.6695559606632732  0.0420736921494340
  0.3781600744539396  0.2180864183174921  0.2189625690050597
  0.6252125197940682  0.0906002734985225  0.2614713988636633
  0.6380730837601395  0.1397004477920049  0.1515618342364119
  0.7387733733703609  0.7116222179434855  0.2438555353742040
  0.7303658724155474  0.3635349185336816  0.4592133520318130
  0.9097228139327761  0.8211565288457868  0.5078638959749942
  0.9906662584269436  0.3881751831486909  0.5901142387083058
  0.9435768787325570  0.2450886715169495  0.5530017551810741
  0.8592299121897731  0.1560830540951371  0.1211817574718094
  0.7594797960727706  0.7501279317166535  0.5134927204713343
  0.6160962248697719  0.6778071105548799  0.6178692712525788
  0.8619464281135889  0.1381580732314875  0.9135111428382419
  0.0444496985117321  0.0773511270469617  0.4874729314682401
  0.4716123488882314  0.7081448779322020  0.1095558287266862
  0.4544322422924166  0.3186722193216397  0.1249355982675728
  0.3661295715039928  0.1572220369535123  0.7265574316534520
  0.2611976913926040  0.0967110004262188  0.5839496939420354
  0.1284943819871620  0.2911608568181076  0.7538124238512233
  0.0764923926685727  0.6783596651936927  0.7025751599478459
  0.2032900136624498  0.0991283617937119  0.7993414214245729
  0.3036435972108817  0.6340497440855374  0.5961407565474097
  0.2130949534554202  0.1051093206909226  0.5804755196859622
  0.9245383993399746  0.4162803854633953  0.2590582367773461
  0.2739230403670191  0.8747225222818152  0.4914731425077180
  0.7881566965342649  0.6925634777175574  0.3145024727796089
  0.7846649802699091  0.0092730905898893  0.9869983027078248
  0.7627462595428730  0.0738102670884893  0.9302626061785902
  0.6221800615002706  0.6898556769316145  0.5279573912245227
  0.0032249268995353  0.4095577739198284  0.6346791707096906
  0.2179481865473415  0.9252522212736148  0.7907885936835199
  0.5722653383911940  0.4889478754427795  0.2667461988170515
  0.1211842248986644  0.6268899231253471  0.2299635683606371
  0.0827596103251469  0.5580953435818103  0.8091592849476371
  0.4021035004809072  0.2084387048259336  0.4395949062847149
  0.8990914630532176  0.2025068803117947  0.7695759481009039
  0.6887401392838844  0.0417774333280241  0.2990225257084076
  0.1211944856699635  0.2118808490881150  0.7609447586073529
  0.1590225509182906  0.6668702084312651  0.4163792687584916
  0.3877423313010041  0.1462358887142889  0.5449268447442304
  0.8580906872442349  0.2637239826724634  0.8049834676044382
  0.8259374151201094  0.9447251167693999  0.2133423851582346
  0.8248482463510719  0.2352548861073870  0.1334751857030112
  0.2505780538073235  0.4455004550306087  0.3937131318484078
  0.6989758080063421  0.6029831826146395  0.8474229115576691
  0.4962933586350054  0.0180322545739336  0.8885985860309730
  0.2230359648561626  0.7794264375247228  0.8447302319083774
  0.8435614350847577  0.2225959621261184  0.8516839435822917
  0.7246798036161703  0.4863846938036759  0.4656601331861208
  0.6053934396549989  0.1102983473002028  0.9819751058052929
  0.3006583272918061  0.3021265300699567  0.5992510924193792
  0.7501874479146059  0.3653612613365574  0.9940815496361063
  0.5171579201212111  0.1827880615024427  0.3020178701778876
  0.1205282617970136  0.1585155831545051  0.9856569163589786
  0.2382207145650538  0.4642344632603241  0.6750655665428137
  0.5953940852479409  0.1969986338447857  0.2225359431317502
  0.6871675410721539  0.3740398626699042  0.4931257039716412
  0.4629369133100949  0.6766123172943572  0.5960489496463128
  0.3672635822644791  0.0315257216754864  0.2135147884625662
  0.6549186258965005  0.2459471498416082  0.1638505697010668
  0.0295243451981410  0.7958567070658585  0.4400529351973678
  0.6071008990386856  0.2706998918770284  0.7835302991142019
  0.5666499217992736  0.0876731324317338  0.9370376202819314
  0.4723124277198413  0.3231266603675184  0.0027348601367965
  0.7305331732673639  0.4588312640000266  0.6529275520901555
  0.8839121509944523  0.7486699710877125  0.6872583423804194
  0.1985376564291982  0.1377172790626408  0.6744339797562817
  0.8882037232458089  0.2776809966445559  0.6538177624552745
  0.7130654298775646  0.9810046714787285  0.3766392828951202
  0.3102170830619569  0.0373836700329287  0.5294018322165069
  0.0465453074173282  0.4065152596977160  0.5788394201491323
  0.1349579975103525  0.0259202679014336  0.1071171729998819
  0.4406931626334148  0.0492268138129367  0.1848798808128311
  0.1927388495001577  0.8887871905531453  0.7552259149305051
  0.0311786338608627  0.0953211128453427  0.7724126882343511
  0.8386784252717705  0.5491144684921543  0.5084267300071955
  0.6529278500435870  0.6624604231559402  0.0875006732611337
  0.9668792207073619  0.3133217205745479  0.2608929036542160
  0.0964084007833437  0.7546982394032268  0.3057845602153867
  0.0930698791380293  0.4600355545261801  0.2658672734381525
  0.4256333299007017  0.8677066128290645  0.7456259298542633
  0.5272133642617588  0.7530025864242654  0.6498942371802422
  0.2978698928584494  0.3251008998049809  0.9266861221629580
  0.8335040170027258  0.8033868841414677  0.2672070396652148
  0.4334527080258108  0.4381198505776386  0.9401343247844073
  0.0149118953623059  0.5684223722752175  0.4461539413943598
  0.3309243996246611  0.9953230470970249  0.2236490785299383
  0.3674895054539531  0.0032832684510003  0.3854558366672753
  0.0624658670920037  0.4870604521864356  0.9555276418953850
  0.6130752750272680  0.6335470966465094  0.6165709019304129
  0.2230909558863733  0.0808515444826232  0.8419196371885491
  0.3469177204584261  0.4885886553368649  0.6747950993153227
  0.4881093599980347  0.4333554262304092  0.1938332324542476
  0.3782262946041020  0.5551517126547941  0.2635847639315709
  0.9236781332947266  0.5042431286305974  0.3900039840673771
  0.9955986540212103  0.1706200716659241  0.3520484040613905
  0.2029742947575417  0.4269005630892706  0.4379572797365481
  0.2042644144940716  0.5295742727650176  0.6809450071192679
  0.8577084874799116  0.4363180889328658  0.1412513698915900
  0.9962044678359132  0.0310008813613302  0.7280242563969817
  0.5959019841161999  0.8428173708778147  0.8748301579589634
  0.7237711946266531  0.9203822469232582  0.5553421048975558
  0.4568091285484423  0.8727367371488802  0.4474626645982722
  0.7602714583404037  0.5042696092418266  0.5107120328271980
  0.3617237713558150  0.6854765808597395  0.5408451806854019
  0.8382040089203823  0.1840221473717513  0.9400972295821791
  0.1702229556079340  0.2356127095565912  0.8347185496780889
  0.2057203080710811  0.5975021802645279  0.0914200364991690
  0.6451503716197898  0.7868220886259863  0.2577753051673524
  0.1644290276663352  0.5688025980980566  0.2883395916410119
  0.3541271506649697  0.0531991662065645  0.8901560631060522
  0.9971901722758444  0.9473144065779431  0.4747207108187168
  0.3739226552387676  0.2928157460432149  0.7080300913726967
  0.6366998163941171  0.8164880455035171  0.6747646335769465
  0.9548254401455750  0.0702591277366284  0.1062388155947119
  0.0588631864520067  0.0304771769946318  0.1052077291227374
  0.2074611754832805  0.8617996860485496  0.0487720158328070
  0.8106246944123667  0.8834474181295895  0.5135559983313601
  0.3761516821043856  0.1748970069549558  0.4650240026097576
  0.4753555006046380  0.0134161470221845  0.5760686022124162
  0.8114437683957026  0.9817076181121173  0.5053881636680511
  0.3413481142066068  0.3472026756715265  0.5144875124909279
  0.4547926542120574  0.8624012540268527  0.3860783358741450
  0.6390701849188276  0.5936363462226799  0.8387079971498520
  0.1529508558901275  0.5103582876155881  0.6586843848295261
  0.4766740562717916  0.9589351118269693  0.6815987914364504
  0.4002031907386485  0.1176341376948587  0.7334037311152919
  0.1618394026601814  0.0231363749301469  0.0220089540615726
  0.7121108615712304  0.7275081265651759  0.8939096804367422
  0.5760659578757111  0.7504018998969654  0.6595411499219533
  0.7748513625832446  0.3306528523159806  0.2031158412596182
  0.7357637457582560  0.7707085435825902  0.3012799698825600
  0.2456685075168389  0.0701984849022629  0.1985232987982153
  0.7688277125459194  0.5953179581461794  0.5978612886379058
  0.9392476153721091  0.0722776644694223  0.6055757126667508
  0.1837849019518782  0.3686662352876882  0.6814917516661655
  0.6608209343988265  0.0439174885056674  0.9501452621311169
  0.4798837223690047  0.4679019348051167  0.4874698029572088
  0.1090892895191445  0.6789362795721033  0.7963643452248650
  0.3180229787942883  0.8355680893998010  0.3529785774305165
  0.3133988905133199  0.3147955099795401  0.3613397093825447
  0.9655145939908545  0.5524138930606224  0.4654565565040129
  0.3225757817167580  0.3424524786006536  0.6370189245193091
  0.9536427139990301  0.3272970773047703  0.3637676946520815
  0.9682018359900204  0.8666504424025712  0.1052247031572911
  0.7230024747732493  0.4859819352525758  0.6943995412511377
  0.4595122365678383  0.4128592096739594  0.5038110589106684
  0.5829457026102427  0.5176619828390389  0.1100963721177897
  0.6869754355971609  0.2980321657461084  0.1504224696252024
  0.2591026690828263  0.0537756269527370  0.4467949509581645
  0.7964075484724400  0.9171431206805005  0.8747228202352469
  0.2392084488127375  0.1791332157343123  0.8740647900816646
  0.3568702961767305  0.2753989713123005  0.1504188476288001
  0.5921281059521646  0.7540802839861883  0.9219900036399119
  0.3425806358203999  0.1949691054236810  0.2636848390403934
  0.2423506657018830  0.2031971266801635  0.5914771521925817
  0.9881956285725159  0.0784129446220874  0.3561048538110739
  0.4714301503648375  0.8859591655575711  0.7096709954086104
  0.6482406701234876  0.2026824307492472  0.3586630074860199
  0.8030839399899374  0.2274940558315777  0.2153249114255120
  0.9494133395265099  0.9690306679482397  0.8167276745508426
  0.6721354924969331  0.9432733386741636  0.5410445487752891
  0.0191936886889285  0.1352545635962386  0.2225080099975422
  0.8720655225559520  0.6023992311329768  0.6178850255402721
  0.0111492230406103  0.8314721980646160  0.7040269380430824
  0.9912985900970545  0.3251834701496996  0.6819508234158289
  0.4904419629252961  0.8845848553545383  0.7552742578747744
  0.2328118728116462  0.6851383292265703  0.6461233385505225
  0.0257221637858694  0.0922553861887034  0.6956268859240575
  0.5982722781525526  0.5821934446839322  0.1193796513183813
  0.4646807230124309  0.4053380829338336  0.0470968099080858
  0.0280999462299509  0.9097587173212781  0.6814714908328199
  0.2182541288552768  0.8654814221138778  0.1049429602546246
  0.5749932510337666  0.3545673023717296  0.6566581525182580
  0.9458732803178850  0.3518320526259050  0.2333435893323399
  0.4152765431083183  0.7774209874653054  0.7735417827632165
  0.3912291685779182  0.3953118754737570  0.7017661418928248
  0.7998445902821062  0.9187245085184618  0.5869423754527209
  0.9336892196181520  0.4102078710632955  0.7634033958361606
  0.4750006008234808  0.2978372669576945  0.2904085244034393
  0.5333033834259623  0.0782262581751307  0.7556901263768628
  0.4634406035861333  0.6985670158982530  0.3643674376656164
  0.4733811121904599  0.8421389309141712  0.7733797705848102
  0.8797571903914622  0.5261271005386787  0.4102474243813340
  0.2153418947711104  0.5062673125120237  0.0046724245329244
  0.8329107917205061  0.5567782031934566  0.7239400597339850
  0.6094449731730617  0.0485058968632076  0.3845121064170139
  0.1602516274455313  0.5221049154336239  0.8976400573997708
  0.8948277494477112  0.2081387774528978  0.8787233664723352
  0.8025372699313977  0.8420565467903471  0.9841288621852651
  0.5466332985350855  0.8451016308608069  0.8871440518664950
  0.9531835677610088  0.0927879313923786  0.4788990980102628
  0.2435543789432629  0.3648810348932538  0.4924132973168008
  0.1615360302005933  0.0778418144490262  0.1890683053106024
  0.3430887209095536  0.7961962994894698  0.9784553819183711
  0.1723894867412841  0.8766539309134922  0.9013691680607155
  0.6168448328665458  0.2121331597783710  0.2745711821910917
  0.1023031952725676  0.7859499789318342  0.1384541551430473
  0.5579759014999370  0.2059802724401101  0.4051618062348918
  0.8384336565277507  0.7316496792637462  0.8471804519527438
  0.6770807745771146  0.4671626378530786  0.8119032125871556
  0.3692810994378743  0.5415333041355709  0.6303933340618912
  0.2457944859521169  0.7384299820404974  0.6508388240466193
  0.5560594277840167  0.3543439862747815  0.4334978479706910
  0.9724343389735719  0.7698875329019492  0.9566565129591768
  0.7814332283745823  0.5065363644607149  0.2955141426739745
  0.0294796405446023  0.7384524030362217  0.0481278265472249
  0.6336916040608120  0.3032709133342787  0.4215267867303387
  0.4373950788553888  0.1056397243543086  0.8286303927228327
  0.7515286852867364  0.8776226520078249  0.7114891817362977
  0.1722536572206754  0.3165090774085735  0.7210601163529632
  0.9527671033520572  0.6695256439016127  0.2337059007051069
  0.0889497883975754  0.3009469883007114  0.0970957886609785
  0.1957772109963180  0.6027675388185538  0.9719468871595531
  0.7676773143466978  0.9909899103419667  0.1951487899649962
  0.9953325071184767  0.9499558382370079  0.8052101356774912
  0.0676586739854467  0.4702628805525543  0.6834197338333794
  0.7591618797613047  0.1320770857806779  0.6785002992133852
  0.8385436758323513  0.1886092521830284  0.4032553512031075
  0.4678114314502827  0.5150172364480481  0.4077782470498851
  0.1858536484934109  0.5331396580153245  0.3182894608946325
  0.7175595359740186  0.3271639293650456  0.2848656780941913
  0.7492885968999720  0.4497184327843721  0.3353515034431949
  0.7860697562113180  0.9643807322070841  0.2304934226723836
  0.5186202755632674  0.3475510204771895  0.3544184001443116
  0.0054596148803529  0.9923538666632531  0.8740680675694117
  0.2709514576837054  0.3644917959791103  0.6054728070003286
  0.1393012181268597  0.2355795622373311  0.6804727509302584
  0.2086425980835624  0.2630001420546872  0.6014009754047414
  0.8594737125851404  0.0559178655703709  0.8899831011390366
  0.1711390320553295  0.9850695011686742  0.1312493432146928
  0.9011147158301703  0.4072021168458008  0.6087560675951349
  0.3438145727129928  0.5244205722594657  0.1570933955594399
  0.1762057860251366  0.7863318062543678  0.7635085733974986
  0.8812464361307162  0.3575611012077834  0.8607567745497604
  0.4342662326264841  0.1944139995586105  0.2925002319812909
  0.9766024095275503  0.0211321353065451  0.1825605740574528
  0.6489585889168116  0.8955956499291781  0.0759091674483995
  0.4617237586693527  0.5828877134236269  0.6899644299341309
  0.6187092764644815  0.9556153146926190  0.3449567027044889
  0.9462641952200810  0.8020396877007062  0.9281927236895998
  0.3096464277521773  0.0749363448388605  0.0289806942458569
  0.5573208881248493  0.1664287048780163  0.7145487165481874
  0.7720260936569124  0.4170608744773453  0.3804916345441905
  0.3454022175730167  0.5764237254586470  0.3579411408097277
  0.8499931323465930  0.4703248548663170  0.1083582514637874
  0.9004755312311338  0.3631893297972605  0.7966806227924572
  0.5649953491496874  0.0114204479543668  0.6799464906817798
  0.0634957710612968  0.6072147544937173  0.4963590946108415
  0.5484946508661687  0.2684522056777593  0.0517794181052201
  0.4038615747037786  0.8035301997420442  0.3818198364536906
  0.1283099674351209  0.8953444751863798  0.0864681156440908
  0.1905271597998380  0.4954404296930094  0.0977892100956022
  0.5265863212650580  0.7271266716844318  0.3292040165108809
  0.4759917801577170  0.9178023426478089  0.4526081713844564
  0.7008760805044217  0.1277759510863774  0.4830405389762963
  0.1250779548305415  0.8183293977105075  0.9406212551799209
  0.0402883924317544  0.3276787928947671  0.6976038069424040
  0.6954814846494602  0.2112069342922132  0.9219724988758082
  0.8848939075514155  0.6204236260212727  0.4088506186942191
  0.3943392809848140  0.6426822743695304  0.7777052350390059
  0.0252612600881541  0.2965240558302193  0.8794447862184802
  0.4340770694416277  0.7158605310189522  0.8685369345544416
  0.7285003114922437  0.7687030190348150  0.9913532645517442
  0.0094845118271872  0.1801172069420121  0.6650240144810121
  0.4926566135378418  0.1242169997679830  0.0945706798838005
  0.7810030581077795  0.3803071641258809  0.0764745713289481
  0.3821830416867523  0.7438564589126350  0.5166337455467536
  0.8789778187028806  0.5251902977057009  0.9871752125578089
  0.1832808206119609  0.0658934721578298  0.2296944046794090
  0.9241036852833406  0.0229606196497103  0.6083244075611742
  0.9593373489595642  0.3249174722236817  0.0032824612998098
  0.1321410899021932  0.9529853542406689  0.5761116937274543
  0.7912741832885916  0.2502179212190246  0.3306990723420500
  0.9065630922795269  0.2772808079418029  0.4834051967323367
  0.4985498717046842  0.5365535711898664  0.2017340822207967
  0.8969251181407623  0.7759831386929943  0.9236475185796347
  0.5293232842431140  0.9070313260972106  0.5225475997445520
  0.5175107714725263  0.8198408409804120  0.7691126305148408
  0.0629379370601186  0.4601439723310861  0.0866160402118116
  0.8253185658427763  0.1509719050640287  0.0514015246990874
  0.2932396592879552  0.7779526853639097  0.5111173984708243
  0.6170372362949704  0.1051789393724137  0.7552114641890748
  0.6997600959265443  0.0276116121944434  0.8621835990451042
  0.8510972732755662  0.6218187929645140  0.9949973095079808
  0.3636165205297479  0.4954037441767496  0.5329836793939071
  0.4289856784474491  0.3568705568859831  0.0282354219308596
  0.2541450964235935  0.6260271989642888  0.8757206662775140
  0.8521572426083117  0.3704185366628233  0.5273240912057593
  0.3822958543047736  0.1548393219834819  0.2249840402579168
  0.0157781658675280  0.4271906952432441  0.1546797492987964
  0.5737949195762442  0.8666447067990138  0.7932469329588961
  0.7607085560244902  0.8159378000037988  0.3199547226235756
  0.3501132337676404  0.4923305407511873  0.4292262013550694
  0.3014622056501329  0.7015426023308031  0.7255443154978179
  0.1545428676301326  0.0537636715712960  0.7612850214261850
  0.3953366056085758  0.5836496920806417  0.8676752532303939
  0.9779343358549448  0.7040836981717928  0.7052293291161096
  0.9512727179161090  0.2088497688289384  0.4551555987358665
  0.6523281442742311  0.7712716010798653  0.2026804754298526
  0.6505186730844169  0.8652725567583598  0.2075474888679832
  0.6456939131672983  0.3482890138829644  0.8703857355972208
  0.9918068241629240  0.3144816160394002  0.4667602517437679
  0.6608165395857110  0.9396564819685561  0.0002382221702887
  0.6064899827714675  0.5648721081615619  0.5414370279330006
  0.1422988531133447  0.8970792345532325  0.2895902139257717
  0.6326226961251199  0.3301425325760903  0.0882590019886120
  0.8215924347161471  0.7465638127684305  0.0130126063433265
  0.6722193663879149  0.0456483046450743  0.1868369879279793
  0.3486770982275607  0.3512599075489676  0.3537637219668344
  0.6156721254041368  0.4615318394152544  0.2893336387770266
  0.9273642641731700  0.7418408784365448  0.3879762247447722
  0.0227895129083581  0.2032463448626379  0.0573822042649560
  0.3923736449526876  0.6982912599973518  0.3750443754202022
  0.7338723373747650  0.8833201175259590  0.5864387224208615
  0.2891978465005969  0.0803381148537910  0.2613939309714598
  0.0142581459615410  0.2961828991510925  0.4116678801220784
  0.2001690073332129  0.8965237003801041  0.4462095469535231
  0.6266987115106487  0.4998104754294010  0.1874792079275998
  0.5783830299803527  0.5896501017503060  0.2522909135969570
  0.5677005055989254  0.8784787467050311  0.1265419303943819
  0.1077791137922533  0.6542702792294438  0.1923645827459497
  0.8927060230616306  0.4352153632826924  0.4713618817848332
  0.1735985631444319  0.7801926247739583  0.9794842151175195
  0.1702812986142497  0.4886881345388241  0.4435379847536927
  0.1445635599023911  0.6982828428129104  0.4755356879423689
  0.8157252102303866  0.1689220909257788  0.2764213985126706
  0.0614978955367721  0.2167779744449218  0.9212726062650930
  0.6156576374185276  0.5367513377800589  0.1478237849725206
  0.1580440346048954  0.8907834040561846  0.0444383995589450
  0.4504230554058132  0.5927923558836304  0.0356933220217056
  0.8117571409173373  0.0573885823306002  0.7337697669059533
  0.5989084832172735  0.9542724385766150  0.6088970368124379
  0.4946290652547148  0.7946330123224753  0.0946561925186559
  0.9821443433544141  0.8447630812742060  0.8410900603467509
  0.8154045378496789  0.3605050300882311  0.1071040071826253
  0.3237738152208490  0.9799561733530976  0.3872475051395544
  0.3474061778652763  0.2626808290865111  0.3065280098933770
  0.9617422055939769  0.5257252730920522  0.6535720253626021
  0.4337434360866475  0.1499353064535705  0.6018435479831327
  0.1963289462631940  0.1438473357192090  0.3635914179531397
  0.4573668973723073  0.5177990786617317  0.6102485163337780
  0.9833640902148294  0.5871093411069267  0.2796013623771758
  0.4492857299134009  0.5396357132183752  0.7853695656471714
  0.3612235820325973  0.8497674326221925  0.9176101626844579
  0.6788617167258575  0.3428647716615635  0.3800155422047496
  0.1668933073882529  0.2940381558624246  0.4183857244107405
  0.4148264099616014  0.0423064729233562  0.2420698073484665
  0.3066637835477172  0.7883312972451543  0.1935854655538227
  0.8741079188408817  0.0879659182334571  0.2863550541880715
  0.5217018961732711  0.4125784258089008  0.2348976026987774
  0.0004823882423895  0.6869156959341348  0.5914287720041335
  0.2239367339460121  0.2815621566660394  0.9565180391018631
  0.8642334441658228  0.9028055270658690  0.8039261798525765
  0.1730544815563288  0.3498210904280039  0.9556316276429964
  0.6159546969897848  0.8099161611521365  0.1101442588208669
  0.3986785630293979  0.6685135705829891  0.6486148251451587
  0.7986506163935200  0.6471150765474426  0.5080072860639284
  0.7589953237930672  0.0226379407388620  0.9411641263322083
  0.2538499363054624  0.5900181487266303  0.8285648429678912
  0.1698944619496481  0.3875352909102545  0.1240920734807602
  0.5154631237583654  0.1718890739529928  0.1743267427090551
  0.4948412825863376  0.2590149776635027  0.2271887839188634
  0.4247558198006026  0.0815593235482299  0.5930283350014194
  0.9711760071437706  0.4430112775750669  0.9538128454084464
  0.3846350122075290  0.9619195623741081  0.0118281052788787
  0.2176774772326872  0.1081744328186094  0.1928178816478769
  0.1235445654281943  0.9052174600942809  0.5222119179597299
  0.6871061626652543  0.8954410865865605  0.2735358498827175
  0.7591910791975968  0.6162703041621560  0.2071967976790467
  0.1439172802872657  0.4575677924735311  0.9962680808935493
  0.6143274988117224  0.2785999595158196  0.2887384395533229
  0.8208337707910582  0.5194825527941784  0.0926341687996084
  0.7569343799070233  0.8778922253750214  0.4319688254483249
  0.2625939942833032  0.2548373912218041  0.0158333559213200
  0.8955084985504491  0.5461345989790256  0.6027682092137748
  0.4884098832779337  0.5242393048405454  0.5105024598322802
  0.5289557586852949  0.4260407439741699  0.2830343631934265
  0.9371340082170384  0.3539244305989777  0.5619037843439058
  0.6651607751060944  0.8161358645474228  0.1847062298285048
  0.5304076857572469  0.4306491524558029  0.1169481185408001
  0.1505425634802073  0.5968426603437880  0.0800985416727339
  0.3885070287830819  0.4262751215922644  0.1203220314671560
  0.8807369357627626  0.0946089203445312  0.1747525926511005
  0.4842969713529713  0.3233137006341751  0.7022756422607787
  0.2512763262962546  0.7722379385467457  0.9700009532980883
  0.1018985838235650  0.8786280958625965  0.8337825289728689
  0.2194558495330832  0.7232716012102985  0.8555949548131988
  0.3984179282651479  0.7654013225714313  0.6338996500443931
  0.1215356609711798  0.5579333314034041  0.5907237024525450
  0.8245096967644709  0.7505537071703410  0.8003649659503113
  0.4124732854917419  0.1234904217030544  0.0181160679431247
  0.6027551365069654  0.9197539376244733  0.9188643231662175
  0.4754904362649520  0.5883667045880754  0.8105085670624194
  0.9822045299475877  0.0077222470522441  0.9717415972452139
  0.0104559598937471  0.5267733987758936  0.0122106286020064
  0.2263349611165727  0.9255284985930214  0.7424390944387429
  0.9371603026073728  0.6721242447548920  0.6896065133744793
  0.9989112257848456  0.9469177560721898  0.0236020249329163
  0.8731424007459381  0.4292209126816594  0.4131076655916947
  0.6636351790481911  0.3066999476454719  0.0261624737803898
  0.2801679953156295  0.2107797249376363  0.8835699514783150
  0.2283748061752449  0.5574771274555193  0.4789960818522329
  0.2844793256039159  0.0114071925183045  0.9615015337096411
  0.4663365619641013  0.4185761911418600  0.3898955290182922
  0.1757053732368453  0.2928531764430535  0.5883979152100305
  0.9082236612419231  0.1813549427408573  0.7128093389031458
  0.4966821133748227  0.7607911636133881  0.0065987758124588
  0.0939501639294597  0.5664458981870185  0.5488505934843363
  0.1419521749846894  0.9494672690976208  0.5225682330196869
  0.1990037300845031  0.4430431213480640  0.3009508244511426
  0.0639173472338084  0.8434878405871642  0.9330783405951129
  0.5817337025390478  0.9650486693122655  0.5027844976064355
  0.1903977362780077  0.0711265353531889  0.0494398318944067
  0.1535702358970106  0.0574737644233674  0.2806437897016388
  0.7113086219567771  0.0865635259195006  0.6328866083771170
  0.9845822728197291  0.6697584945083705  0.1834340059199575
  0.3662524400503290  0.2413325029600021  0.9315116269636555
  0.4137759006503076  0.6895341851789702  0.9172021899483058
  0.7503653261132424  0.5456189533215462  0.6196362095900391
  0.5017568562210133  0.0793644123505244  0.6302631284123031
  0.0334255635377470  0.9292023388924131  0.2550600741677101
  0.4101845934514555  0.5569363419772527  0.6845885306569993
  0.7977280780810777  0.3357977631953016  0.8124060834912571
  0.5835646636201126  0.1308765848497320  0.2380582368344107
  0.9656164940644453  0.2746177374147716  0.6679388929018836
  0.8318993887971035  0.8351838784498151  0.5100964237934330
  0.3917281288432306  0.5883057731113230  0.6139696194962497
  0.5739850511097532  0.6560964358114248  0.5956890591451772
  0.6540350449952336  0.3273364071577352  0.1709591612931196
  0.7265368728666749  0.0180542507532418  0.7587329013082279
  0.3992631104179236  0.9372663740290053  0.3447265709227940
  0.1755614617294058  0.9579743609869305  0.7362378641562127
  0.1895217531892454  0.4073211864858847  0.2466665025358217
  0.6549356092420990  0.4695400455276095  0.9312731152416983
  0.6943448667964479  0.8270811093671211  0.9893796955095028
  0.1749314764425685  0.0401382332132970  0.3821868033488256
  0.3839044676375430  0.1282258793901101  0.9061718794238993
  0.1695680353432936  0.8797525721132731  0.2483572392831625
  0.7577025038535639  0.5242692491604163  0.3934070964300251
  0.9162792047057160  0.1997911092715578  0.0819093443419454
  0.6360293466847676  0.1567111585509378  0.2113706969470299
  0.4756488730021797  0.7255451348697547  0.2621744572295888
  0.5048714379293824  0.7582753193257222  0.2836931940968559
  0.3911881627369008  0.5429195697200446  0.9362358275976254
  0.8005993808125846  0.7668065454429878  0.8399272970801199
  0.6055726958882564  0.1538769323995695  0.3444114479247490
  0.7006016653939625  0.3437814998820906  0.5879370557397777
  0.8569761924335151  0.8346746015469350  0.2100549532153865
  0.2918626675040384  0.5749656530971692  0.1313892975281195
  0.4814685366714288  0.6857583703176297  0.9792704335303811
  0.3986678367058620  0.5899398987066691  0.1136663197800173
  0.3146660492135308  0.6687927529483532  0.5496108216649407
  0.3484634656171380  0.5539002709980976  0.8513518744828273
  0.5686389844199558  0.2206079050982679  0.2921502670538438
  0.0145604930423277  0.7816216094316809  0.0733287184768331
  0.0258500160689005  0.8944886784426052  0.4796386929157322
  0.3611328552126898  0.1761479271931472  0.4134671836510409
  0.2321555000240270  0.2092163632822839  0.2262204352663200
  0.7550464724763530  0.5128444482926354  0.2516962916580269
  0.8090504574567626  0.0712446087114860  0.2447969751074603
  0.7131949651319317  0.9960900537181971  0.0548841114840795
  0.6085541296569007  0.3165390589726234  0.5475558740917067
  0.3186531503020204  0.7238722753283070  0.2599331770290981
  0.2709931152978543  0.5426777060219824  0.3734181083466134
  0.2464370411493478  0.6078397118163973  0.1919702227572014
  0.5733805408413135  0.2414015909119432  0.6116353405809359
  0.9071709172798926  0.9698005796153696  0.6708585385776599
  0.5421111848160656  0.0272701761839745  0.2800973989744412
  0.5072421416517033  0.8240405690864926  0.8618627031993229
  0.7364293737243427  0.8965603486521849  0.0578261455669235
  0.8636944464081457  0.0833592416061449  0.6810661251891936
  0.3431524829439057  0.9974750157564081  0.0289532476137364
  0.6229287439854024  0.8094386907780746  0.8186674258786029
  0.2057656901031244  0.6974137871414317  0.9602782858964050
  0.8928137332271368  0.9010840266267205  0.2664646514463245
  0.5636722496927026  0.6032102231294819  0.6204208327078519
  0.0611812315608233  0.6053164559371217  0.1411009872080590
  0.0119389823634755  0.8407855519397049  0.9396126828141181
  0.0731339267654338  0.2393633101087866  0.8276299395880395
  0.0203292206413485  0.8054779213240985  0.2470403968482403
  0.9740041811160606  0.9316306593595605  0.5228942685621626
  0.1639029722608409  0.0227534582153791  0.9287790215545358
  0.4131294906805559  0.4886113742860206  0.6964393304435414
  0.7510666340027574  0.1166803701383718  0.4682542647379266
  0.3571283983368123  0.0240645208192815  0.8383328737795283
  0.3052885236181214  0.0598800130589681  0.6929108914187468
  0.3101814403827075  0.8988967504856987  0.3078312954471636
  0.5003482813733521  0.7620741510896500  0.9326389337719319
  0.3908249202596602  0.6558965835472115  0.2455764957727578
  0.0225506659887903  0.7664776793429124  0.5113151650610167
  0.4269060007393963  0.8216666996089615  0.6542726628568962
  0.0949051512328069  0.8056998966306045  0.2989408492239835
  0.8743638608385847  0.7662732832888679  0.8083662074012039
  0.7475127944479231  0.8227241363375388  0.5652318124418028
  0.2629612963760487  0.3142178527641190  0.3365487548195280
  0.7522623956119328  0.9571396444484380  0.5910929039984167
  0.6198521885837353  0.4595716782774329  0.3370959835407519
  0.5352168776075670  0.4480767093765216  0.5180747600742750
  0.0687842768725364  0.6895753772408821  0.7663007694929284
  0.5358715185408652  0.9208837025485601  0.8389260990617480
  0.9898550057211859  0.8724791564073037  0.5093807024066666
  0.4620027920580011  0.3091802423643355  0.1841748112612427
  0.3463870281526534  0.4573012731290081  0.0734535702756981
  0.3654058798629323  0.6170166402640144  0.1478371928769404
  0.5672418435352302  0.9123287891334861  0.0239242150139159
  0.0770780247938102  0.9468992829594335  0.5027119459458527
  0.7661703403782666  0.2508080738564815  0.2872245009234292
  0.5124131979446431  0.4888898490119847  0.9161159262252256
  0.0035873159613319  0.3097411769434107  0.2305581344332988
  0.7809147894036821  0.4919910973042919  0.6091759212243704
  0.1147597716296335  0.9772894156523509  0.1390514959070403
  0.0709923212988419  0.3681356547144523  0.1392602495300213
  0.6925225836090769  0.2236533802326063  0.0739562223702484
  0.4602666174123486  0.5537624302918259  0.3823154074987192
  0.8259779367868004  0.1239938792029744  0.6485684188981945
  0.8407541923410341  0.0714291582736758  0.1866238767360618
  0.7410881735800869  0.1026609442334140  0.3343117949437948
  0.8761342256405078  0.6672725200522179  0.8158265888854720
  0.0295742873143437  0.8808589476929829  0.1252243989421492
  0.7530510783452504  0.4532443764491774  0.0555021832891772
  0.2990250024463074  0.8024250904644185  0.9426194053802655
  0.5759570558964789  0.3207533123084925  0.7379256213692382
  0.2680302105082346  0.5795705606259816  0.3044098961926540
  0.9250968385590606  0.6585965630555762  0.4269822023295157
  0.5319352185124552  0.2386739017344441  0.7841096695618543
  0.4475235215866666  0.4990405265180922  0.4624226456872366
  0.6109677014291862  0.1652751409235844  0.9045650910558984
  0.8882221218702072  0.1435479576978125  0.0217809987365848
  0.0142220982518456  0.6865217270092654  0.2213790458233029
  0.8228944167236707  0.4407286190917695  0.3698514567942223
  0.0723879584498425  0.8746315719968341  0.5807843856619447
  0.2465461665936537  0.9586444582544905  0.5423186721369625
  0.6854525211201417  0.6464824469239003  0.7704079830585123
  0.9011047343902133  0.4701623212694056  0.4210669328529174
  0.0169729125728271  0.5940687138960405  0.7520322265860591
  0.4260240213378240  0.6215992012854603  0.0765222997442648
  0.0595156486008368  0.4352529799034259  0.9474181688604810
  0.7814572136258222  0.6578494448259600  0.5538744980262683
  0.0084729558534867  0.8192124571932691  0.4866088292725608
  0.4435493442282706  0.2395579854321268  0.3191208999453778
  0.2065448941929008  0.1693425590839668  0.8357370289954911
  0.8161710975407038  0.8316394244280745  0.9399612138406759
  0.2420584664959781  0.4602698576559168  0.8617347322004714
  0.5912097762319429  0.2631751152073661  0.8574585045508396
  0.5479879065674569  0.8419929337327108  0.0594928598188454
  0.4152490569042576  0.0418187976442637  0.4898925367975145
  0.9851464476423725  0.8838407911475956  0.2395263651242034
  0.3911900249458480  0.4498546347467702  0.7291796453161817
  0.7076072209649668  0.3080307938916770  0.7685106900947483
  0.0730782606844796  0.6594831979795167  0.3414361222014515
  0.7862045801390952  0.1773167798830355  0.1730374051002830
  0.4567113625787144  0.3053618201622831  0.6552125569567264
  0.4327694263189046  0.8974872072893848  0.3374650733540868
  0.0414480411539212  0.9628323427116672  0.9849794447439878
  0.2442557613211359  0.3280110854593053  0.5618359999382277
  0.5586528889406017  0.3113486915729012  0.5569263977814747
  0.2711293545044314  0.4351274297762057  0.0616428871254010
  0.7999122257110685  0.6912941960991467  0.0532708053847632
  0.7157569922014879  0.4579275712421300  0.7810478256108699
  0.1610440532188328  0.2567441442070200  0.9218897423101947
  0.9814978588963046  0.3674239184548328  0.3612775116037082
  0.5868240134520369  0.5701887147058146  0.4551320604147739
  0.2349997448595312  0.1821958790572334  0.1074795029947384
  0.4877422441261839  0.6249828721866997  0.1646721018002130
  0.2233736019603792  0.4356907479827334  0.8150373847336492
  0.1671651340282755  0.7801252872984277  0.8702474107166227
  0.4695934536802152  0.1520088388720975  0.4069228972362579
  0.5855269476761340  0.0708339730165392  0.2278279871399894
  0.5609498119444347  0.1604204553086843  0.9183223458742247
  0.8014643396243796  0.5503757798562711  0.0468101228406646
  0.8945694238225557  0.2225856082443720  0.6393907083228195
  0.4654229994987844  0.3215696302225865  0.9414307201650893
  0.4361177897385051  0.8270585393946810  0.4184390580749883
  0.7842538790227255  0.7821892107187871  0.5567613315803950
  0.5741924639422922  0.4284506658169189  0.5765335212981738
  0.2548679686927171  0.6469301219548068  0.6774322851379877
  0.0978788289011862  0.6027599037618703  0.3896980603815312
  0.8727632550042883  0.3992211362282538  0.2950210297447562
  0.8111079748783437  0.3060316753426801  0.1482259476167577
  0.8408010455181458  0.2650462813796010  0.1736524368492744
  0.8541888380813478  0.8171945675780845  0.1295487460709766
  0.4342635138014213  0.6157535039351294  0.8760579495620305
  0.6762865052169551  0.6615082384770585  0.6178565709875590
  0.4153918510863288  0.1612981143854992  0.8059140506595324
  0.7865327758439495  0.7072064735995296  0.7325820500394298
  0.4667675143586620  0.5000757657160190  0.0078391984296506
  0.3945712377312771  0.2326334731945046  0.6043022224561193
  0.8020986079917956  0.0914169824764955  0.6919826919911051
  0.1784503809575533  0.2638596445942669  0.7645859730059897
  0.7434375363878732  0.8155331792437513  0.2289176400833534
  0.3937480296440783  0.5762743018127238  0.5080447909521250
  0.6819696689703746  0.5009003518378387  0.5313643769817809
  0.0161121961057900  0.7470958831088242  0.9739563595902965
  0.4931480877231865  0.7993158719178175  0.6125570595214415
  0.1112640329939518  0.8987549246522799  0.4111260518068014
  0.0581383542079661  0.5115695055590251  0.3249598560993199
  0.4636169547734330  0.7771808369994747  0.7888075013171320
  0.9920774403671309  0.5092081501256190  0.2235739756430978
  0.2049576962630242  0.9728647327054485  0.2443728197755569
  0.9534522472679106  0.0904296206706012  0.7580434370676170
  0.2783280583874391  0.0575277219276125  0.7409423998637003
  0.7370412210960345  0.5274517642511792  0.6684431045964271
  0.3813461277417021  0.9169017039125856  0.5095396605623994
  0.2528941948074915  0.5630559330195377  0.9315981824355213
  0.3165034535375530  0.4051181560571694  0.0589184195693806
  0.6675724846694329  0.2972201122905033  0.3744630682752447
  0.0467528785376277  0.1460878617250760  0.0314487565796987
  0.5261837489348525  0.5416936403259247  0.1099111195717223
  0.8311300730368366  0.7141893102213780  0.3126724055588386
  0.1501108289578887  0.7566808215367726  0.9289644230773190
  0.6662855493102025  0.1647841136683870  0.0590793935662989
  0.2838282414897068  0.0930933429707640  0.3179515444590738
  0.5529933007524538  0.5416082394236061  0.6667812693319468
  0.8719939392440216  0.4455845896308431  0.6366555703095317
  0.6856929695394042  0.8277786183503839  0.1415225726916154
  0.4264063328346839  0.0817187100120206  0.6978562479872861
  0.3533092684953600  0.9114066232628333  0.6980581859255204
  0.7336336766760921  0.5007086560488140  0.8439978623736231
  0.3397835979817072  0.1931733959579866  0.5683050158673650
  0.3844545641605455  0.1212586853234181  0.8147313865594454
  0.9742534936499115  0.2750991556718015  0.5914827015752444
  0.2241258598866897  0.8360661930489978  0.3005143226739192
  0.2559883294616204  0.1660458719626511  0.2878333315166264
  0.6692182304486092  0.2105483640980363  0.5904800510338936
  0.6689840390514095  0.8952915139639215  0.5680368577789684
  0.0951802646716213  0.6284380146673325  0.5556293692497507
  0.1861393113459112  0.5547378180941898  0.0851519156712554
  0.7955266491520571  0.6151032578149465  0.4612263999037349
  0.9511151750391760  0.6923913351224784  0.4669383906516569
  0.8960257457076231  0.3200537176512087  0.4503706900902180
  0.0384119236195423  0.0168443677808437  0.9062113582535800
  0.8419423561377051  0.8124554692725369  0.6691777087819182
  0.4779010285029221  0.7859429025378348  0.8637485994443301
  0.8669910031748349  0.1792301623321034  0.7408619524371812
  0.1107026235515950  0.7773370390859657  0.0501253016968259
  0.8416594493544465  0.8956547936853411  0.8931412585367700
  0.1613073136976983  0.0153062984146361  0.8338630508877457
  0.6425768733431189  0.2839563242210951  0.1970897331064827
  0.5621164486056759  0.1303317118228263  0.5470768767063082
  0.0712964339864866  0.7984595537555376  0.5269966403844838
  0.5262043449658086  0.8982860949277333  0.7909298236100756
  0.7296463148783497  0.9555792623274012  0.1610995098012804
  0.6796917404978030  0.1310658783892147  0.8089209966907533
  0.2404538569124452  0.1145855899157572  0.0610222454719562
  0.3487878624157401  0.1040809344219215  0.7145469288275981
  0.8038674085382029  0.1140620764254760  0.7942704774846345
  0.8606001255331220  0.3963550104376199  0.3742900318198709
  0.2669425687505336  0.7572960953729272  0.2012670402168392
  0.3604129252337027  0.3659951200180050  0.0641727631574838
  0.4596935039867586  0.4856006293485474  0.8091363425334075
  0.3943632289918749  0.0525826679680272  0.1640665300726734
  0.0160641487871911  0.6893405154484614  0.0897530987821733
  0.8471947537174584  0.5665856755905953  0.3154545457259538
  0.5999943744985642  0.0195898631675198  0.8798822563443560
  0.3892134763692912  0.2454857503307608  0.6492602667662578
  0.5108450690343859  0.7314601063929215  0.4330793351318974
  0.3635782335137935  0.9995342464102204  0.7800116925526487
  0.3816358874538863  0.4352091807489878  0.2880908563919345
  0.6023774805324735  0.9211806876314592  0.9718165325332492
  0.4555982458026157  0.2628639028481102  0.1891068157916306
  0.3467551496173356  0.5825346386072380  0.4199048027373285
  0.3068679561366881  0.4387194446144577  0.4086354590724597
  0.8029494140155919  0.2148857653115835  0.5190046727341483
  0.3421686779571005  0.4202774307476630  0.3179799617676080
  0.8967447073379576  0.5462173927888181  0.4867108410786884
  0.8470107674734750  0.1819935686772097  0.0143276133385551
  0.2751934579328877  0.1198972429842105  0.7393794106501372
  0.6211916382352765  0.7755671957025481  0.8620942875039965
  0.8423909250289063  0.2252677291689331  0.7204820866957525
  0.9053325446072179  0.7694271948502016  0.2846195499376400
  0.1534993043582118  0.1773928511185286  0.8498182336822721
  0.8295895048189980  0.4116903383619816  0.6380923017564746
  0.4864560908947116  0.9684697706133434  0.4662402485173521
  0.7278600095678387  0.1736916363476129  0.4486941806192337
  0.4164998654099122  0.9074627626660976  0.4199200728506956
  0.7338683894917969  0.7546968986127849  0.6609562052567508
  0.3335558125995899  0.6278051615787164  0.9314157604470539
  0.7281985591544394  0.8209414064682063  0.2820225692061449
  0.0084232017039996  0.9061764977020884  0.1807735238633629
  0.3489036918122558  0.7458740505743883  0.2879126429956876
  0.8408195931192598  0.8216580589594465  0.5561271004571580
  0.1636657082188783  0.3951547050386134  0.4263474870319525
  0.5040843566957592  0.9787627208830167  0.2336262726505247
  0.7592668338575688  0.6941331708833305  0.9833104585971503
  0.4963727259803351  0.8345562395462510  0.7216417959397102
  0.6888425607759804  0.2626293576312105  0.6862624330354574
  0.3792355001209469  0.4702674615865644  0.5707795563605819
  0.3143128254204261  0.9768040495123530  0.0701486102911345
  0.3932413970779035  0.4834828508454350  0.0789599871224165
  0.9614397828609518  0.6963250653025415  0.4147448452097141
  0.4071352635445963  0.9933862008152222  0.7473971140281231
  0.8625100815177271  0.9728793324235947  0.1193196509461026
  0.7677945590220134  0.8296247378122790  0.4165691395827480
  0.3094013982989048  0.8839069368094001  0.6982412038208511
  0.2869185586154939  0.1302271022352174  0.9424246183243883
  0.9775869221537554  0.5976927959723631  0.7186579412994344
  0.1671640725691756  0.9795159471579800  0.8839009777407690
  0.7292347667010189  0.3279863553244865  0.3808458639301266
  0.2284901327753449  0.8940471859454032  0.5299456344732679
  0.7542244934470594  0.3156929829595531  0.3212707829307400
  0.1607476267986177  0.5033370894894273  0.0104385459123296
  0.7949860126505063  0.2853391260969271  0.2019970819904096
  0.2915917905905789  0.4185230064543280  0.6930337972092619
  0.7889762919361061  0.6959729588348049  0.2428815628506400
  0.0912048117000964  0.9266811314429795  0.5621397634616948
  0.6465365999600847  0.7319445041842668  0.8854653077447741
  0.3620059332554945  0.1098785309151463  0.2547152116927784
  0.3178858829715955  0.2886350869567534  0.2728663112778416
  0.6990391231105468  0.6041406944520393  0.5019626303096788
  0.8629141808592694  0.7568629455718087  0.2581438549400926
  0.4475526092904220  0.8211974229542672  0.6000758647620936
  0.6087863471126165  0.2644286425380835  0.4366214800145434
  0.1236389328665935  0.4983484924291341  0.9711202898520704
  0.3604442475881946  0.6539871489811117  0.0763897011561795
  0.8283263312459340  0.7006815169136184  0.0020565676950180
  0.3396750312000855  0.5755653961107040  0.7103170329365727
  0.6939894083526066  0.7315325835651464  0.9950417790576399
  0.4279083533273157  0.4764028441607216  0.7575935273859737
  0.1982779527694219  0.5261209180049741  0.2541090068141967
  0.3463397280453945  0.1202821801956860  0.4120567093502535
  0.8014720864136001  0.8949298729863755  0.0738312634943690
  0.0826254102373670  0.2045669675817230  0.7925872640614404
  0.4352207264444604  0.6177014862264363  0.5317809531232692
  0.9534618562660782  0.6420846542741953  0.0555725608208142
  0.6134798585431364  0.0467962354174408  0.4332910310450150
  0.2776463781802275  0.3111038297184340  0.7813873435461233
  0.0973929506537278  0.4796442050542160  0.6213892186045742
  0.4034211250435871  0.5706140059851759  0.9920682782991107
  0.5813316143831685  0.0013311331427711  0.0931451030684514
  0.6314006401256101  0.6606105047877928  0.2954913119922818
  0.8634703854276188  0.3020950959829279  0.1458634469248491
  0.2928120216253204  0.6752673555043321  0.3882306024869596
  0.3130127428660287  0.5742262071684154  0.0497972875573439
  0.3460900803139330  0.8269895631752769  0.0699846474488560
  0.9957603682461851  0.1783187414070758  0.0192724822411263
  0.2450788576757978  0.4204275247888073  0.2345151422252017
  0.2925284630689305  0.5936356758274589  0.3589577206740036
  0.1485651303544005  0.7288723808398939  0.5271068459099790
  0.3546537088668797  0.9271180801503502  0.1757663605798661
  0.9601727358932777  0.6651695647323251  0.3178263667736431
  0.4919170558765512  0.1044410204549966  0.7673472564328963
  0.4244680340299025  0.7715066863373599  0.8371380060306476
  0.6129054415712835  0.2053705107424393  0.0048602847534581
  0.9721907620432783  0.0817474811402548  0.8133748045855900
  0.4827515986360488  0.3076383333560548  0.0823825223243839
  0.8233447733354614  0.7999512576106016  0.8643481562369703
  0.6772068833670187  0.8820126978683094  0.4316173521316305
  0.9940585327335190  0.0638592556257005  0.6006013801269932
  0.8308164025617705  0.3339341762134818  0.4319884903748073
  0.1604356695557829  0.5536450738839734  0.6174642035623842
  0.7118546961084538  0.3821541774480707  0.6580214384443233
  0.8398588422792209  0.5131443384214923  0.8516213733616658
  0.1151468690034877  0.1384399837329592  0.5135035212832281
  0.9368193693933197  0.1003147378697934  0.9525479586031508
  0.0576341890686462  0.8382717188377022  0.3036820332035519
  0.2870651330817279  0.5126449684702115  0.5832383673683844
  0.6166890404660231  0.5969724935515867  0.6576434845163999
  0.0576023639177386  0.9447257126762632  0.6291475162762152
  0.7087842859963123  0.9064237245619186  0.6388895506509493
  0.5086936962818659  0.4165725660472108  0.9314509189519768
  0.7126999899937663  0.3027325301055541  0.9213749532688310
  0.7928529640340268  0.5886732986691422  0.1923773016330591
  0.6380327855585221  0.8769140442592368  0.8493142454528022
  0.5810210724191337  0.1402567082266227  0.6641310480466512
  0.2118443684148394  0.8333953384885673  0.7937786308575004
  0.7926348621221309  0.0228638639283362  0.3796616107722450
  0.2770671939534697  0.1154556232469333  0.0025482539976006
  0.9053137735410302  0.2705395370645851  0.3167858016581274
  0.6985782636402941  0.3288534370544812  0.4847608103575396
  0.9811158081086973  0.0682976351194096  0.0496686368522267
  0.3682996035901636  0.7502608189471256  0.0388431297400722
  0.0089136022094982  0.8629360059481306  0.2787930519615547
  0.5959261928325135  0.0966154318630486  0.4264457744201856
  0.0553435649865771  0.3620439968063753  0.7819437715795463
  0.7818646649434693  0.2525391646717081  0.5518968321243432
  0.7975036446587612  0.8920721271360043  0.1873389649717862
  0.6369116612839505  0.7886388596748736  0.5632741094197915
  0.3075502508728523  0.1484862937386208  0.8466522550069603
  0.3011532465637031  0.3691163311902262  0.4381464056772256
  0.2712387779021688  0.1296320426771848  0.1073770721915978
  0.0398804196956021  0.4943529741562032  0.3757430389730123
  0.0716153558907839  0.2302275923451710  0.9780496438329556
  0.4033567671023719  0.3583732105296568  0.5332975360898681
  0.7804348609138100  0.3577956650467726  0.2555019018625225
  0.3586773092507345  0.5837505493172220  0.0655270453032895
  0.9564100309829255  0.9293628613036616  0.0017985580634433
  0.0379163595577973  0.1950791805945499  0.8087312748432127
  0.2368043184398143  0.6603115830075885  0.9490511771304586
  0.0268959001187217  0.1128268266755753  0.5252656426797045
  0.1641341841237252  0.1787465466685159  0.4443099076064855
  0.7640796756374253  0.0407960492128503  0.6957189535344070
  0.3585993571842047  0.2197335793754685  0.0609170725661408
  0.0843040891817747  0.1016608821624997  0.5019876583979291
  0.3852694295516608  0.3794775127957249  0.0248952894748058
  0.9753387145359813  0.7589929401656148  0.0956210309073338
  0.6282038977584906  0.3024779288982931  0.6193983682633029
  0.3016450745687478  0.2160519177984984  0.9926242594023865
  0.5794056806457966  0.1270324362310740  0.0894312997650526
  0.8455055812256331  0.3404280340099749  0.8148341060049730
  0.7539401713850011  0.9885738059655130  0.1303756878871144
  0.8061943503502648  0.2220871693975648  0.0078548706637622
  0.7818660802222693  0.4713898521632202  0.9891386511833774
  0.9204358040525796  0.2748851506195894  0.6918438456920021
  0.3828543680122174  0.0756399432453806  0.6727435409623724
  0.6853769899252433  0.7555067360397427  0.3803159537521117
  0.1197473165418715  0.0021446219541162  0.5741596890648215
  0.7317670729157777  0.7205097963648868  0.1417746133615740
  0.5506481465368884  0.6993336500776358  0.9996362209721692
  0.5851586772347359  0.2014507471294804  0.9264444074416116
  0.7046764765238653  0.4067054284754039  0.1945763655567168
  0.0736346840623803  0.3261266044930979  0.1630162814706322
  0.4039163608910052  0.5105334469891616  0.9814008750543345
  0.6009892782506946  0.6932032582234571  0.2046330387551696
  0.5886635779384378  0.0589832384073102  0.7823560646404562
  0.7802550460178684  0.3257952430330334  0.6499545727501315
  0.7788375325672608  0.2322239362028366  0.6067302822140140
  0.2072409506531848  0.4723066921162840  0.1515990691043111
  0.1540182833697067  0.3600464052687150  0.0856878221620803
  0.3792577721399554  0.8154615959318211  0.0133592437361610
  0.6546976934270049  0.7493267349392108  0.3015753907099437
  0.2704757005418751  0.0567062969054807  0.9923544625701162
  0.4556212627052031  0.8222286397808681  0.8247482084864284
  0.2396665708358379  0.3757024428179633  0.2652806776197849
  0.2438123321266289  0.4207043980150768  0.3115025472761188
  0.3828747778222787  0.8932959708561032  0.7427114983635392
  0.8023478460372887  0.4717245283552107  0.3317937904937505
  0.1162186447409586  0.4306959311445566  0.6151815823232657
  0.4755690587267027  0.4538659073073945  0.9106717211239107
  0.0715124455688393  0.4682125885016883  0.9112475161303848
  0.9559119273337288  0.3717113193581478  0.7904434891214253
  0.9217494062439338  0.3815397974722108  0.1102964944023004
  0.3525614426263439  0.0321156578311531  0.6747517470910317
  0.8516583940755361  0.2704270596441742  0.9479191030672777
  0.0236428911082626  0.4664338810036818  0.9257947944724707
  0.2188480431548070  0.6573708571265299  0.8996128815584333
  0.9592469200930883  0.8701808926130289  0.2825375258463138
  0.0624118444104455  0.2537348331704360  0.5088106057595710
  0.8335122852104514  0.5652589262040739  0.5767243604710828
  0.0712623229740963  0.5450819667495320  0.4771180441289828
  0.2646760928629873  0.8239455964301855  0.3392775613223953
  0.4399063793532234  0.3789872304241064  0.5647957575947267
  0.4973351528084264  0.3755748815050802  0.8573924333773930
  0.3910648845045963  0.2747344420494926  0.4634372516100283
  0.3102696532205363  0.9564591188107737  0.9692650083221553
  0.8128072777868417  0.7189685577518271  0.4122735077158865
  0.7611078136227696  0.2710355550397610  0.9910167261508064
  0.8603726380881322  0.0833264201734506  0.5420947973773302
  0.6418134421631254  0.9954136249402168  0.7022038354837745
  0.0346709157711862  0.1201496188517796  0.1215947674831638
  0.9827377176133496  0.9878613248223147  0.5157765335241790
  0.0846560466727953  0.3042295040119389  0.0385813683394091
  0.5032659903518233  0.4297183086914561  0.4237786442776495
  0.5264452030710393  0.5146212563375158  0.3259561378860714
  0.2048991111695454  0.0011892590083078  0.0387053192946959
  0.0863007868591403  0.1320950840301526  0.7708660864595233
  0.3797561364984048  0.8816739993049929  0.9535251713702829
  0.5412647736053847  0.7043071632454567  0.6680940521513642
  0.6389794580989201  0.6014271953067180  0.5860238222674256
  0.2753781704383603  0.6627007970868448  0.7536238938174088
  0.0301366557943082  0.5926100083835206  0.2707093146543011
  0.6008296124555618  0.0414411649473837  0.6343722786751922
  0.0415990243998377  0.2985206976413165  0.1359537858117329
  0.6596566813650376  0.7621674105137257  0.0344288961131247
  0.8417179227153885  0.6471358587992934  0.0752269192674590
  0.2073941173390919  0.5313066857485966  0.9272546917987168
  0.1432673786757381  0.2443823356632770  0.7880942008019969
  0.5944042467041468  0.0920785787602116  0.0499682243721297
  0.0269266847603801  0.1007296938894977  0.1785786126656574
  0.5414183313551708  0.0904886713163169  0.9977870474876005
  0.1502315280308014  0.3443918574866245  0.2741541963636349
  0.1761806834485284  0.8549996438569583  0.2908251377891066
  0.7236041917282683  0.1015526412674438  0.8675113788430402
  0.8190680987556822  0.9710119837797015  0.9537186176357180
  0.1113974788871080  0.4204597037594148  0.1949220474035853
  0.0785050587876606  0.4562039106406027  0.5761411166288201
  0.5256043784872000  0.1952843401542628  0.8153052448686142
  0.4249538843442267  0.0274304890967165  0.5887930014602681
  0.7037920017623036  0.5683211053526689  0.7357211384175441
  0.1327539894219400  0.7029639146876632  0.2305050614783036
  0.6279043055830653  0.7188207728497774  0.0757290685655936
  0.0656915761192969  0.7364712361814757  0.4435510574605020
  0.5265744403719749  0.5754177601853702  0.0608464157031617
  0.7267671908692644  0.2146028212841461  0.8740941384946724
  0.8703008188692285  0.5690112772326797  0.9170962675033890
  0.5748510900027375  0.3974415721141315  0.0401362546162906
  0.6938462417287459  0.8232536740737643  0.8862109362072325
  0.9942047533800530  0.2025795250828250  0.3916681657151308
  0.4159012769659245  0.6328095874150608  0.6139739398210072
  0.4105877244443452  0.8993281870545856  0.8676152901022939
  0.6810462367976375  0.7918259185554677  0.5841310730934927
  0.9545747868212821  0.4404293621139546  0.4190706076173413
  0.9901668884756627  0.6929902215198975  0.2922982009326093
  0.2490986963975792  0.6383860838399846  0.3577937655936465
  0.7930981797081940  0.4516870111066350  0.6294415218247990
  0.7327927031155371  0.9836063263546810  0.4318117667457181
  0.3255342730711729  0.1459208029604228  0.7461483911964895
  0.8874831973599587  0.8386227079800703  0.1606455032599533
  0.1892938374361977  0.2902308696698765  0.0482394939067437
  0.4884598649660765  0.2164200206410912  0.9664961270827441
  0.4886319703169766  0.4500464422683317  0.6721714703737930
  0.5109067081505382  0.1809764301502497  0.8652579570402138
  0.9922861567459329  0.3685765140606121  0.7568631690368823
  0.0062859712645530  0.0391440650337007  0.8381512711629976
  0.4470121217655869  0.9435808266155251  0.3613132287713156
  0.6638839701635370  0.3815613246076405  0.6152254932102407
  0.5185383011254118  0.2697100905774132  0.0972662925121840
  0.0107508022724765  0.3979654859793365  0.3331748791373509
  0.9654356363314933  0.4562538923287455  0.2541411299185359
  0.9819153661422666  0.8001989314005791  0.7531307063998327
  0.0663522040543604  0.1353158675147804  0.9844756054912335
  0.3320416877488015  0.9151431827595670  0.3476862168467561
  0.2396176506067950  0.7363817756636523  0.0083252372926307
  0.1662362455833233  0.2633279653177522  0.7167494005936291
  0.5194916403738408  0.1667897127045202  0.4906586868025711
  0.0091287158579742  0.6949824126516109  0.4368951502414237
  0.9832965292742251  0.2045497235268720  0.2920022586867205
  0.0902533439716594  0.3228097124047052  0.6673695783825460
  0.4845712002425358  0.3903096842881492  0.8110903956258821
  0.8289409346868676  0.4260736305841775  0.7788954845096975
  0.8384328371558141  0.1810503226012745  0.6673996716791326
  0.7471459392853249  0.2787067013326731  0.2357566769302992
  0.8793402045640055  0.9633496643571992  0.8824921049396764
  0.4952805404328029  0.0031815895147221  0.3621732713514898
  0.9144791935373535  0.6240291232523023  0.5829180674294662
  0.2757471485191583  0.2183402001528164  0.7848355586094725
  0.1989817001526578  0.3793873818826805  0.1977424187203864
  0.5269187255621330  0.7840345852971033  0.9713906825912038
  0.1868895394644693  0.1261939859636425  0.9518886621474847
  0.3103982573704299  0.3733918512004579  0.8420788188093556
  0.1626273405099202  0.8667965885607474  0.9517249367368468
  0.4623405967610229  0.0100800322819343  0.6471186519886212
  0.2943419007638022  0.9954858786473679  0.7016466625667725
  0.0334573095447743  0.9453698135069202  0.3213253456528929
  0.6517954780269744  0.3526460241567256  0.4275432486411278
  0.0606683745612424  0.2481055617439486  0.1893862961104261
  0.4907982407410741  0.3177577257518493  0.4627356457670816
  0.8534755375662127  0.1088292041065340  0.7874690945026012
  0.6910694647233987  0.2433751785762740  0.2145444782778304
  0.9780798116179000  0.7179107485814603  0.0648594201181068
  0.1967414441670881  0.6754862767881649  0.6035521619363666
  0.6289552618245065  0.4056661669061511  0.1393603991272017
  0.6924562889705567  0.5993331041014138  0.2901404221813110
  0.9170212577269958  0.9950630827279959  0.1123534531611973
  0.1312466430117193  0.6333800937481247  0.0058541832037272
  0.4888212824785488  0.1031852026072741  0.8721613145841958
  0.8682474727956889  0.2601746682853708  0.1115754315741024
  0.9489951618853270  0.8210584276784484  0.1632303610112022
  0.5351808252423492  0.5510920226615427  0.5074556997737681
  0.1955638949614163  0.4520723021378105  0.5890475654233502
  0.0197576109494834  0.3407717977816277  0.2780700679598942
  0.0917664725406611  0.2257822388789546  0.3936846028073367
  0.4269319971762993  0.6242952329108570  0.2134249555029533
  0.7959683651143327  0.1739708373350664  0.2199976964704497
  0.2024114234811613  0.1701376291939733  0.1873303801885396
  0.8771921837875906  0.2834442912489733  0.9921925248800678
  0.7025293496077448  0.4713787906420737  0.3262937563681986
  0.5369400540347680  0.5834573631405751  0.7171631089333389
  0.0295705768630164  0.4759623572563512  0.1231636692101342
  0.8380495200661224  0.9565878346932041  0.7027465576593461
  0.9281644926019602  0.0051284012331236  0.0312745306383599
  0.6710600295857467  0.9708587612275260  0.3425593693942229
  0.1680312101654388  0.9904492738404159  0.9722984722087843
  0.3798851503342667  0.9238090093395357  0.1327252089826610
  0.1011850039770878  0.7570411962122345  0.5366215045722601
  0.6262818001715498  0.9018059677913706  0.3742701806724937
  0.8724410928564229  0.9489867447008857  0.7594138738760396
  0.8380969691500971  0.1278744060734158  0.2000148536765637
  0.1665784264773710  0.7440302402515877  0.2066318593507350
  0.0544435500913512  0.9679344972735605  0.1051456430764377
  0.1032537877627995  0.4483728378433052  0.7680086385625834
  0.9921875341600893  0.4686090527865470  0.3047114064432950
  0.3417710591026947  0.6851042880470155  0.5894128935746118
  0.7621636116074735  0.5666348379068014  0.8733178208287642
  0.2472393924963379  0.8637453219565830  0.6202281313259957
  0.3588246844668157  0.6968996684952889  0.2572991010953747
  0.6247617907404882  0.9549209342203874  0.7870735613222163
  0.6346142168616122  0.7104435141682665  0.2732277846565824
  0.5778393394561286  0.6128811956107909  0.7485349981832196
  0.1238408149385594  0.3346749256884986  0.0386700001742511
  0.6060974291253980  0.7473826632866929  0.8214002547527962
  0.5913255311401008  0.9693175971028241  0.1355172095461516
  0.5616306727797096  0.9382645925130617  0.3970711787545336
  0.5841466411602912  0.3574897786051057  0.3532270333482517
  0.4868483465873495  0.4303522791054405  0.1405763657034541
  0.5706505425247199  0.1689151635084951  0.7658849754791980
  0.1690411978100416  0.4310493784027349  0.9400997621863473
  0.7781677332531322  0.1687922577179800  0.9640958142381626
  0.6079315559616731  0.0643186811950640  0.0849651268028066
  0.5690557467823388  0.0225334754724465  0.5299110346310290
  0.7490312396234691  0.6889019279972172  0.8845724902871290
  0.6839567204053937  0.5812723588944687  0.0039314198770878
  0.5074757371420400  0.9969963535686199  0.6910487569599059
  0.0843363705738744  0.2370542827467968  0.4562348605533051
  0.0698837110683955  0.3799451507065455  0.4195788416832108
  0.9420027907536688  0.4021176905130847  0.3158768947151784
  0.4964883691559561  0.7987245833329027  0.2561875299527022
  0.2022355750902773  0.3335525351118429  0.4336102509027439
  0.5240873113462750  0.4140750831397645  0.7746434655763795
  0.8450066582044996  0.7157829141500329  0.4551048349199659
  0.1160508876479502  0.6958223433751555  0.7486027081005396
  0.4515718148611612  0.4095833979149419  0.4518378872755370
  0.3569909300723301  0.6434237314839470  0.6163755189676727
  0.4265873767885306  0.9777440181005411  0.6232772005236024
  0.0521674791722045  0.6844997405343969  0.0505976556518053
  0.2766997801281874  0.6353635697419651  0.0063108416469832
  0.9531337350495819  0.5805225963281475  0.8076096291501359
  0.2521966485800498  0.0333351346712710  0.7833464618469343
  0.6691637794589931  0.6548949385986922  0.5105104673307531
  0.3071033952138825  0.4385784753971548  0.7724928377074384
  0.3411967911075575  0.7782144374535279  0.4142945630862814
  0.4560216003846719  0.1381812391107906  0.7743453631681118
  0.2222363323342353  0.9865984492026824  0.1691357980245592
  0.0888843317530814  0.8213246490695401  0.8484939796557400
  0.6495837697045652  0.6079084273265489  0.8943335191931245
  0.3042717575329508  0.2789399988695782  0.1625792396528141
  0.9980111084681277  0.1779259084296642  0.4476414739013822
  0.5962886531819963  0.2046178058859815  0.6910290920334234
  0.5784233281819702  0.7657253469282439  0.5519981362910708
  0.3655567187876554  0.8504826698346326  0.7790160066727604
  0.0693955050597531  0.8465963142501864  0.7988141928274419
  0.0040217416665493  0.7629004504437011  0.2216606863044773
  0.8910631823284118  0.1523581892705920  0.0763500500721712
  0.4198374280176188  0.6315119257322948  0.4815198591500136
  0.2090040342181243  0.5731909307263097  0.7107740190122153
  0.3946560427267325  0.7703100308678899  0.2076398544317642
  0.4381529606527197  0.4905776062250100  0.1032032939671962
  0.2655975324721508  0.2145254092582111  0.0409949750281124
  0.7823962883537157  0.5937677809301731  0.9150299604555773
  0.8944348233598521  0.8223691993122026  0.4461314831544565
  0.3108279993291750  0.0464595247621754  0.8510773848840101
  0.6334063136501011  0.7720883659241069  0.3541462941729469
  0.5993562327365380  0.9987615786738486  0.3682678343055244
  0.2040132025070945  0.8913881005455190  0.2121413162535597
  0.9352174227685814  0.9835243146726464  0.4765609457003387
  0.8944170206423171  0.2445866572289637  0.0608628264195089
  0.7387654776044248  0.6428585883126512  0.1145420887147507
  0.6729930024729394  0.7277593757963321  0.7319923257100309
  0.3250533762326482  0.9904817507644551  0.9326410194459527
  0.7710388994498233  0.8916062024574150  0.0244981152227861
  0.2554914362482393  0.4408027722520470  0.9191677142478951
  0.1959931713679246  0.7802756792930035  0.2294312373109908
  0.8214586536253803  0.0799437362429533  0.9409470672573228
  0.8005440359626741  0.8368649317106304  0.5782042206772428
  0.0632907977224786  0.4292539855125615  0.5323278466468826
  0.3349218545948972  0.0306525388834284  0.6175849491905205
  0.7560992164383835  0.2847735918617523  0.9019792277118179
  0.1415558503655018  0.1666268439099982  0.7902204709779086
  0.7829975583785872  0.6923548358271133  0.3774303865000692
  0.9061141509465364  0.7710244487083930  0.4281156916714967
  0.8477810515823944  0.2891353135241500  0.5147119831574233
  0.9047521313225549  0.0166884380424112  0.8977642294923701
  0.2617696316265572  0.4651647111178079  0.7511191482950684
  0.1208930499076804  0.3912118127905302  0.3948569750721352
  0.1830006140316759  0.9934289571326501  0.3618290606496896
  0.5009294395415939  0.9551219038099691  0.0159393900987735
  0.7872309552224334  0.0720525978960638  0.1889476900370924
  0.6201477211436557  0.5498896315885153  0.0756103574007320
  0.0086612216864067  0.6774091937470424  0.8894679396558833
  0.0685271104724506  0.0818961692136439  0.0973661441559329
  0.5253061643463955  0.6544258109207138  0.6049551501571863
  0.9371052557108936  0.3190816073365920  0.8477686120266271
  0.7872837674681760  0.4046050057596793  0.3351521725974868
  0.0389405395623389  0.3432008631323539  0.8393570887004876
  0.6113259904306272  0.6411017059035058  0.7116520132866406
  0.8222217123635845  0.3303976179576775  0.0537684760703798
  0.3340150705701482  0.9571188621965873  0.1395451488768533
  0.5333041655537201  0.6720508737223724  0.8151332512502509
  0.1322496753059043  0.4004739931637502  0.8531074905898884
  0.3820188693459673  0.7831550267671623  0.8769956090111241
  0.3957046525849002  0.6482081187110904  0.1208782267244607
  0.0506786757075755  0.5782141276288418  0.0936977508177116
  0.2387943494091490  0.3265456015062176  0.2638800171601492
  0.3122990885311936  0.2469775659183618  0.0499163897860844
  0.9816406530783758  0.6558000466353887  0.8492579322542388
  0.0391688137906090  0.0495256378271713  0.6212989759589930
  0.8856603927540826  0.8052105826076386  0.3896436838802730
  0.5053122600313633  0.9943325754021889  0.6285735089903308
  0.5123666054767841  0.0737782789942988  0.9059561611394559
  0.9921007552231498  0.1756678683486488  0.7828122313441620
  0.3759861689731586  0.4456947579121595  0.3512469838188740
  0.4395086115221016  0.7889205746444060  0.1087591291838509
  0.8481765847627795  0.8202120164677675  0.3635600583544688
  0.3096129079911277  0.1865766697392503  0.6255571029376579
  0.4939910352252256  0.3863538683099725  0.1621108568584146
  0.8503866543413152  0.8709998921080068  0.0671066221430496
  0.8025941045484662  0.2441673063961440  0.8123811298913647
  0.1224528268108094  0.0922655724716446  0.9030777075255916
  0.6437924488554925  0.4626088665819564  0.8648197420307590
  0.3007800040244161  0.0655909563143574  0.1556644947011199
  0.7660720157458545  0.8551652314765433  0.6102865053963008
  0.1602905476125278  0.4740089373149186  0.3466335846172625
  0.5941764985499044  0.2311349164105147  0.1545283517113892
  0.0305651849894765  0.6492934885738758  0.9361769817948939
  0.0124880465243930  0.5333230483524447  0.4007340320211370
  0.6955799582585881  0.2687714814017566  0.9889895254908857
  0.1989600985288703  0.7377157876650677  0.4937582963510047
  0.4730491175793533  0.3667279737270857  0.4763181136536240
  0.5486874639805617  0.1645740006328746  0.1229105205258520
  0.4788011830638190  0.4616118026674472  0.0841201215598809
  0.2670787893350212  0.5191267963969055  0.4836895560385739
  0.1723613673861814  0.2924870847861237  0.9643829668578207
  0.4058133931455167  0.7518600839909799  0.9902845800811259
  0.2623919818567110  0.4831127926834475  0.0352274252762507
  0.1888172981666095  0.3804112616060293  0.4696759495365761
  0.1133619975938660  0.5367813193441088  0.0209985031924942
  0.4315456198429845  0.8610932384623403  0.5689773105414828
  0.4420644188137742  0.2494195922433605  0.2742364501328327
  0.5625780902036864  0.0216453670756767  0.1721988710334488
  0.4453529308378117  0.3815480284357575  0.1626931695962038
  0.0029894520330128  0.8400313573160896  0.5862028550356093
  0.7306985374218750  0.2008270374867950  0.7427894876742479
  0.3991199810382419  0.6895448370141480  0.5980577144376563
  0.7103974058747338  0.3915044030603141  0.0075866572910374
  0.3111851337610688  0.0470824941768043  0.7943328987285448
  0.6106295615285539  0.4314666621836232  0.9564197889578089
  0.5733707083780722  0.0748630855388777  0.7368351862981163
  0.1811592804467751  0.6855220187580512  0.5079547717716174
  0.8260282909167327  0.5856752539966888  0.2768551255985627
  0.3462428931801402  0.3918425802051255  0.8166038004116751
  0.0335783601096258  0.4621297947082000  0.9949157447560936
  0.0673350546590801  0.1936530451165166  0.1764709459571283
  0.1190390533019387  0.8441601725054610  0.4293843773830445
  0.1862766306336777  0.9890279614835559  0.4154532667374075
  0.3086681721480348  0.0002220924401763  0.2758531268303434
  0.7688375450091606  0.1777750136386727  0.1224856389324591
  0.2967800536941907  0.5297217597136357  0.0588521668305617
  0.9666803367918010  0.0878413830101132  0.0018074192683305
  0.1110826072872709  0.8028228582955401  0.2182830489602268
  0.9720693460199209  0.6328621761957297  0.6770576831861691
  0.2552384179185834  0.7156985188405459  0.9548763901823706
  0.5918309718925495  0.6579847901722424  0.9500206431083704
  0.0967778630384680  0.7554749295109245  0.5889487566166119
  0.6655135519690517  0.1947676702818625  0.1514201946238879
  0.5097983586293443  0.6462144378122193  0.9490284581813030
  0.3126166882671385  0.9226348493541479  0.6132297638815276
  0.0884349621120328  0.3280761137957415  0.5004072761527993
  0.0370830257094482  0.7537054585692962  0.1766883774738032
  0.5856950306557082  0.9082402721457321  0.4322713226697079
  0.7277956516266235  0.5564767115649051  0.2755259925845890
  0.2691515954920588  0.7442580256500089  0.5360195269079886
  0.7643081314310677  0.4254164198025320  0.9172929167682133
  0.1352833254134281  0.3062735204186528  0.0719831980241241
  0.6825629687409521  0.2724914858609495  0.4198510966312913
  0.0994245088825849  0.6479478563886300  0.7617043163927365
  0.1096047582667739  0.2436630015911531  0.9258050738658594
  0.3545588479431094  0.2680961885712338  0.7558408163248702
  0.3341461328358520  0.1735715424926081  0.5044481205915051
  0.7113044506087354  0.3984038499655070  0.6106817778674334
  0.9144289138957792  0.0236392272121590  0.6858746466442928
  0.3213678412610680  0.6085059729335260  0.8689455776858150
  0.7276013115008938  0.4345575193500050  0.4129767895468855
  0.4182402858919643  0.2340760519775416  0.4799694957131126
  0.2816844851717809  0.4283519314985384  0.3436772534252264
  0.7293688457452171  0.7253067721245132  0.9550107671800004
  0.1811844202675623  0.3499177018281845  0.7761556537298627
  0.0791697649603185  0.2012106897740970  0.8749024116661148
  0.1713091075984772  0.8411078630642863  0.7616884503725062
  0.4617493081761083  0.7869010462853476  0.5089317238294969
  0.8566606597495018  0.4309552251183645  0.9151478010377558
  0.1086796780391186  0.7234826267281951  0.6747955462454698
  0.3166449441733611  0.3747586753235229  0.2756942245408789
  0.3047446654950919  0.2900674049684914  0.2265026344101785
  0.2516418965346792  0.4923689767438574  0.0966494357984244
  0.5078952555736650  0.9181601102307447  0.6793987032978718
  0.7805305039653383  0.5643013783634243  0.4274572518319462
  0.5601088011397007  0.1890399624904261  0.1783370655431163
  0.3941157786669711  0.5287168000331903  0.0285649072154099
  0.1256337031576988  0.5720576648494023  0.9172182794336095
  0.8878925853749109  0.9089336842693111  0.8842454119076429
  0.3875983453052066  0.4045511506769263  0.9783833516762934
  0.2176570860447154  0.3224980158711230  0.6883789452364858
  0.7975330675601270  0.6622315204321505  0.1629445678040756
  0.8723855990297964  0.4662424459239098  0.3778716182880185
  0.5000121526583826  0.6960364974040834  0.3983601252994268
  0.5846819889884319  0.9770067323341661  0.6496877554521769
  0.3737150189411548  0.5416191892122156  0.3990504089119745
  0.6066363523947174  0.4893236319641452  0.6817904499812961
  0.4846561542147071  0.5345436890731545  0.9175250969797499
  0.3286706426242242  0.7802579510638261  0.6117150431238760
  0.1789798069612420  0.2939193283095038  0.6521045302238515
  0.5995299395871327  0.8336388409305030  0.2960789506476599
  0.9775953393381968  0.5971558838887068  0.8606044458578795
  0.9262948348189726  0.8475309941649647  0.1306972820612509
  0.3201883926022701  0.7223924151221470  0.4973695664297706
  0.8522865543976053  0.1304324573268698  0.5212176473586415
  0.9073517750128446  0.8717319636893296  0.2095555087757477
  0.3431497641188428  0.9450880240490300  0.9303934077350415
  0.4334290207280025  0.1831553449730987  0.9662289373430000
  0.7103841469470298  0.4480437855223350  0.6102379762311368
  0.9430911401507697  0.0443594512106285  0.0043922429760721
  0.3681468279681354  0.8287357192608862  0.1257347931703975
  0.7900068383674859  0.9455918633017841  0.1782528192103450
  0.2074771532360475  0.4078194391117972  0.3864188594022299
  0.4967671418353518  0.3386464959543686  0.1549538664558241
  0.4187800657773993  0.1550023583768092  0.8615909696697476
  0.1761785232861496  0.5258551435440298  0.1988255353103457
  0.3566862354443894  0.8260613637476349  0.3973187408119743
  0.7549573099119611  0.9532625254203699  0.8752936990101002
  0.8724311859048238  0.8929826728228266  0.1255035161302001
  0.5656028389524427  0.2704407655020256  0.7498007043604517
  0.5362702174764605  0.5545935713891397  0.2320128361965821
  0.1368042845710528  0.4617800346237371  0.6507525665281851
  0.6779271857877952  0.7613316511382229  0.4406863841928470
  0.9438650741892257  0.7622229788287102  0.0557838004927397
  0.4482479208671270  0.7181253495405356  0.4651089938261077
  0.5327170483168472  0.2783404048327591  0.2747105499087000
  0.0605100588675962  0.1039250768440857  0.2159226804975628
  0.7958333922098396  0.6454139114299975  0.2173260411601719
  0.8541720037124652  0.6777612257264208  0.6124195167686014
  0.6854063383382512  0.6333888833743554  0.1489516690655706
  0.4864418263741761  0.8210421147280709  0.2010658844063628
  0.8870917610392577  0.1742984929993261  0.6719763853644843
  0.1108508740058815  0.5519093834126473  0.7147363527217072
  0.3923554325491840  0.2877974839943928  0.5844749858418613
  0.4834526458163113  0.2949179751016182  0.7473245623675404
  0.1471787251042557  0.1027098365293227  0.9812965168649335
  0.8574482996458092  0.5464273382255252  0.0729208528176953
  0.3103580895234388  0.1325308874790208  0.2297716118623598
  0.8698254341691876  0.0703932859247070  0.0550425714989190
  0.8080354790921813  0.8006584500803898  0.2224314732098123
  0.2848810226959162  0.7547599902519160  0.4544335458386796
  0.4224791576301152  0.8711227978985219  0.0752828414021434
  0.5825132232043452  0.9135224650686407  0.1711214341807785
  0.0359874742192440  0.5061282055036679  0.0822433687608044
  0.2164787919554648  0.4261157165063841  0.5197897055379294
  0.7250685583559876  0.4394981459078183  0.7253066976361555
  0.3194149427381405  0.3401966731703748  0.8102214144427613
  0.9515782691601654  0.4173370773083939  0.6386691395999589
  0.2932665123409738  0.9624201986274731  0.5226128143018829
  0.3496028022952133  0.5389617053120260  0.9768081463720368
  0.0789331154473084  0.9693103717321091  0.2594844964053600
  0.9227374943113175  0.5530348652561553  0.8856234465285702
  0.3855428018251095  0.4757410151008872  0.0193425141002275
  0.5922954068039809  0.5174836204660762  0.5209093772895222
  0.8006165131348989  0.5514893063183381  0.5385982393697117
  0.4408961061644806  0.6394254943859532  0.1603396354403759
  0.7347955460824283  0.9677664515381653  0.5217760493335486
  0.6805992321619520  0.8193398322852574  0.7389950507234354
