Ge O 
 1.0000000000000000
    35.9288373778089465    0.0000000000000000    0.0000000000000000
     0.0000000000000000   35.9288373778089465    0.0000000000000000
     0.0000000000000000    0.0000000000000000   35.9288373778089465
 Ge  O  
 1000 2000
Direct
  0.9259443661756319  0.8848848234356744  0.6384421502617904
  0.2809649159757751  0.5161984875618941  0.3846171938327004
  0.1464925126498338  0.8460838074434954  0.7295484670483930
  0.4039630223780986  0.0689044425057983  0.9498991680892789
  0.0466063881329648  0.1737992445211275  0.4020048344577821
  0.7799890924005517  0.3365739704157075  0.5863662377260436
  0.1675843144513361  0.9242494093778912  0.7284988870293462
  0.3964066408136282  0.8652334004651261  0.2185289064979370
  0.7612593632386473  0.6160556930197688  0.2396163949932561
  0.9658857406923744  0.5952440570445030  0.2210864183586222
  0.6638120882114363  0.7259307577995947  0.2199159330493330
  0.2911233758075864  0.4323043106912104  0.4130042695499107
  0.6034057879062873  0.6549448331751978  0.5171185887651778
  0.1195900105623160  0.0098624301631223  0.1333726296946335
  0.5894792503362766  0.1708939341932538  0.6572837864936536
  0.6587455327798535  0.4203712107068161  0.3681491235424492
  0.7550425220424237  0.1244066198543673  0.2184426934611188
  0.7920741534797072  0.0415926574304146  0.2136089636614482
  0.9165474636835221  0.4675764582702530  0.6182406944867638
  0.8417187946729672  0.0993172790615762  0.8824138431328793
  0.2703451049146114  0.6277422842378669  0.4818286305495266
  0.7256504592562449  0.4564005094173975  0.2273379119931356
  0.0859932705502209  0.1419987908227995  0.0847282906562418
  0.3084819779282718  0.7728659525808308  0.1662770641567619
  0.6106877635672397  0.4599360933164683  0.1665548410749584
  0.8853374949658150  0.7459768283783365  0.5400043808743865
  0.4677413990986976  0.4173341653722524  0.8608346244609668
  0.0487392583178442  0.5462713360526027  0.3831798409519304
  0.0962939566765307  0.8803084188470363  0.4169441097761800
  0.6986207610873131  0.5747847584617016  0.1900517025890654
  0.0242014367612009  0.0446157807397901  0.0125901741176641
  0.1875789704203745  0.9071785910457473  0.6400677225526830
  0.3718653354327600  0.5572595167335210  0.1356176723836981
  0.8223780359212981  0.0780508082672223  0.7423924576684062
  0.7541705175210103  0.1129966243721571  0.8851104956151782
  0.0783736227378268  0.6676511696052666  0.7645553131178919
  0.7789921214452283  0.1709409824099287  0.5150461314102855
  0.4574682451375478  0.5602600914053419  0.1548241214166786
  0.5353491423204313  0.7012081077550745  0.4789417148135601
  0.2473062634303123  0.1738286546334412  0.7188455219874403
  0.8291703916077591  0.7962400374933978  0.1154660916998601
  0.1609558643998358  0.0549148377635338  0.6910903389902097
  0.7933953257994696  0.5022500782116067  0.2001759877641946
  0.9592479738995184  0.8584168371771939  0.2344880464737076
  0.2349018584330658  0.6978011001953964  0.7708448302053741
  0.1630163772145285  0.6421961334425546  0.7495618892172561
  0.9938055990838230  0.5443986975835379  0.0494736053313855
  0.3971822396239198  0.5813493715816910  0.6566344812884054
  0.5707942733849862  0.6208798539155684  0.8105540559474823
  0.5486888579021489  0.0523122551711622  0.4586254321920815
  0.3242248022810283  0.1004692105184220  0.9112937771221462
  0.0929030609744107  0.7722551884252932  0.2427087302772324
  0.9683713729644808  0.9147609851644301  0.0089247464307685
  0.4332461244142347  0.0635614970498533  0.2768759813443926
  0.4693350131087007  0.3112373975483524  0.3481854172042390
  0.9743700803132376  0.1274057346379416  0.8060035577393660
  0.4129782835391210  0.7644254626942114  0.6564975172274503
  0.6537153418373227  0.7364638249554869  0.7963128726451925
  0.1769814160191159  0.4926744853981114  0.9205836565340679
  0.1603849021065853  0.7712247196705655  0.5038123178960189
  0.2534677881337004  0.3544007454253704  0.1701063908427626
  0.5271291751893185  0.8696396617144769  0.3687226472759869
  0.5687366803467867  0.5553050714358004  0.1280920148309632
  0.0593140450983113  0.6086222605890860  0.0407191830669711
  0.3468039647716029  0.6134488634797708  0.6154135545386403
  0.1458238042026170  0.5482268430872300  0.4402627985656435
  0.3197591633951742  0.4029418438213039  0.0850137983462897
  0.7990937208641866  0.2803570981401534  0.9982461013484127
  0.0469175898561531  0.7864106895592183  0.0453043370313053
  0.9804858972427953  0.1416266122218924  0.1520294175310528
  0.6733298163635203  0.5173362979178818  0.8466794418481137
  0.2013716627815936  0.7772344159963059  0.9091676489666239
  0.7103742948173740  0.1613729013850478  0.8326480046717279
  0.3637326696187946  0.6336999023683373  0.1734331178205883
  0.2477033530333911  0.0386859568907787  0.7026752688994982
  0.7635181554206527  0.6219077214148750  0.4988481669890804
  0.2258590982861617  0.8840209942884418  0.5152404292641984
  0.4997897152778780  0.7314755195339226  0.9270167204513260
  0.8415948368891182  0.1588929361336805  0.7732287480818255
  0.9504140043153027  0.8398123398834261  0.5333000431774849
  0.1951659565511784  0.9048820541167112  0.9448620758568550
  0.6335047551248989  0.2286341069521696  0.1882724173375158
  0.6425142829066257  0.4920003886360934  0.9982809263189500
  0.4310050897819926  0.9991274491546045  0.6317314421434491
  0.2652945551668960  0.3940637856120404  0.8516656768827100
  0.7480717945556492  0.5034352420336300  0.4890765775426216
  0.9908809386008259  0.4184051393899679  0.6208692896333475
  0.0876505157802093  0.4841018092666168  0.9359079176548090
  0.3078132163942096  0.3109434822291752  0.6559846983015493
  0.2847617933275670  0.7585044744870199  0.2508378658159832
  0.7014202958758641  0.6673747994884713  0.0070229043903976
  0.6616190175439511  0.2276381977337527  0.0314897529822426
  0.3274376712473295  0.7553099735692033  0.8555390523786246
  0.4041906056840342  0.1984904671532116  0.8880675390738274
  0.1468331576646141  0.4887332649138635  0.7857159420143663
  0.1129893116592127  0.4353702087262117  0.2758111123138902
  0.6526572148361774  0.3182591414934904  0.9441246995752020
  0.2793179231427914  0.6483409888765086  0.1888563328210271
  0.1825101587978651  0.3547558964206375  0.4813165548394600
  0.2119022215840439  0.0235333089513548  0.8499612706265005
  0.5798896956824590  0.8332341896178772  0.4787396131933835
  0.8582290690052568  0.7825865255689263  0.9816884204632420
  0.4081458676388723  0.7131735110848531  0.4402621349800768
  0.7152312102967432  0.8086808335231188  0.3843548917299180
  0.8104738948110319  0.8972009184657120  0.5627082974514898
  0.5634757739744457  0.4323537345442139  0.6379136707165164
  0.7803905351249477  0.3146951826755900  0.9139009782700616
  0.0579363817392606  0.5518374917855992  0.7776378760208243
  0.5209957865139561  0.2124774706400549  0.1318823226856453
  0.5718407743670039  0.4412364378524439  0.5446226709839910
  0.4385498453273354  0.3609130414592857  0.1811397351573466
  0.0707520969782791  0.4039098824459218  0.9373466773369804
  0.2645277156860840  0.4437785279845603  0.1942878072274179
  0.6193260019527186  0.6555319205977178  0.0064390117176402
  0.7756989851687859  0.6323945499284835  0.4084447200346654
  0.4078076778906887  0.0509171892806264  0.0384633869737990
  0.6207454911100347  0.3367310013041978  0.0904597521897446
  0.3525649226835429  0.4782637957986782  0.6019393168908529
  0.8377006513498341  0.9824395993246812  0.5787023022129317
  0.5584815228262043  0.5925701257320061  0.8907285702829086
  0.6629213440336209  0.3893645911501509  0.2921429617590212
  0.8952668585165987  0.0372483319399263  0.3440097917544303
  0.2919373298636300  0.2967451665544902  0.1878167994874591
  0.5091771152246735  0.0259979951450502  0.3870520219938248
  0.4770265006945395  0.9393817084659140  0.6747817415833339
  0.5746677019677459  0.7706743152581698  0.7797893266015699
  0.2174183562370269  0.9898786589609693  0.9300339643925810
  0.4489458953354274  0.6294587942948123  0.3481963796377999
  0.8832760796747517  0.3923230148667787  0.1769623711133533
  0.6911646074868283  0.5713161701614391  0.5006912360852956
  0.3652526787177457  0.2939004017737169  0.5968257265143065
  0.9434721560723884  0.0263443187933170  0.2349585551838797
  0.0054463192302575  0.3936171394388448  0.1409016980771809
  0.4199440474058570  0.1325072875723091  0.2162353026171056
  0.6866336452377940  0.4522543206233251  0.4451622366081230
  0.4185313799081660  0.2496379173075350  0.5909420583593830
  0.6204295182066223  0.1398239953018196  0.3036920049608656
  0.6325114471619032  0.0821117395876925  0.1447360547417767
  0.1933334384654728  0.7038562388607403  0.1525832593166838
  0.6304678159640260  0.2580294611227589  0.3643251984429610
  0.0593765216794106  0.5186682468672464  0.1605636853299501
  0.8790586483342446  0.9034128225853196  0.1312011122863529
  0.3366313307520881  0.3802583391362305  0.9562927353936104
  0.4795030020292489  0.8193608981537337  0.5823857329762504
  0.7015663908742160  0.8237790508564389  0.9405409128205703
  0.8904696126513821  0.2816037896159158  0.1083393618822237
  0.1469386677697102  0.1552448744810639  0.2880749964315445
  0.0959335766269985  0.8573050393754186  0.8647473903961171
  0.1116707671382942  0.9943556849751469  0.5926216199719776
  0.6520983696153738  0.0669336530955714  0.4910567168734826
  0.2285341975092559  0.6289721471836595  0.8920041410025313
  0.3247715171576737  0.7095466178118123  0.9794056861139921
  0.7428029251565086  0.7688936232052187  0.8004799776563253
  0.7973605415378073  0.1882724704243611  0.4302417540329725
  0.9088746095803946  0.1671194860336144  0.9929581206849527
  0.3643300558893088  0.5478473783168011  0.2603511081296368
  0.8313554992484445  0.3293038862081093  0.6902390383384756
  0.8558427622207655  0.2260306218834274  0.8875685227277121
  0.4793541996017850  0.6380743645973347  0.0421221854408839
  0.7847736505097341  0.7480616018813456  0.3613497338489817
  0.5030270572798770  0.2347809531428235  0.3775371074445433
  0.3518119388693624  0.5696353344645565  0.3823069604975689
  0.8378511525563486  0.0778179560918875  0.9684717071021571
  0.3860700746157300  0.7524358517629617  0.3620629025291637
  0.4879719995518114  0.8355163400118284  0.0238396349795922
  0.3420720422695665  0.6051678995633724  0.8580590849265056
  0.3962521315502911  0.7629402520223750  0.1842098934116857
  0.9575500442384391  0.7861089439303547  0.0371467237179620
  0.8574551689740157  0.8213572820592661  0.7307692521436338
  0.5999424552037126  0.9676227422716176  0.6821801897829435
  0.9767824527387867  0.5157363134864390  0.1326029102524623
  0.3766402848229375  0.1244500050787143  0.5779547863438204
  0.5389404143202547  0.4284252814462682  0.4270808570882507
  0.5394016859193391  0.2873334793759557  0.4407261140082732
  0.3219700977861134  0.6474509879145277  0.3607481006308411
  0.0237267076468249  0.7879724514620225  0.5177339714762593
  0.7040771332241644  0.9686061229945363  0.5773587272444395
  0.5833067897427501  0.8644710202793219  0.2981283973964450
  0.7137930876567159  0.8396149629924839  0.7549337470963399
  0.7092503932148632  0.3694993874534531  0.7561646186921935
  0.9520138294862095  0.2904224171018307  0.4375082814219336
  0.6426433901144715  0.3974672363530813  0.6222577760729902
  0.9623777619528759  0.7454730342161416  0.9567626601484839
  0.5154233665332104  0.9519395079027456  0.1201747488919300
  0.5218927949395206  0.2498270657374508  0.2179290516891149
  0.7577755921006198  0.9230520886682869  0.4185869618352279
  0.1956272281502629  0.8549521242166406  0.2175327451170047
  0.2321147194228997  0.5034511680872295  0.7801339664014613
  0.7526802635988674  0.6978439943664243  0.1442968938137728
  0.1661539690341497  0.8650296531527442  0.3022926357179301
  0.3845318567288302  0.6532875680376424  0.9389145442269977
  0.3393216924432150  0.7951072173008712  0.7767154920831916
  0.0640146994484474  0.6387227142393670  0.2535890384884373
  0.2874304690423761  0.1274387413840264  0.7826986449862661
  0.4311415495179169  0.1491660458109908  0.9593102978559375
  0.4931196716830605  0.6982360938060418  0.1120276567277458
  0.0086684812976786  0.5616187430379083  0.5080043737244576
  0.6370919394376318  0.0794367332665776  0.2310000283880538
  0.3406960312385768  0.3401000517694639  0.5259924265702374
  0.3940676344083270  0.2236423774290814  0.4571904947627740
  0.9556990121154241  0.5116805315899660  0.9324803123991423
  0.5160802100704958  0.3456789218019173  0.1318179548856810
  0.5120971571521267  0.8531228577002115  0.6593005026609479
  0.8888835369734162  0.0615168306584921  0.1146774600690396
  0.4114982222912817  0.3708406531441734  0.8331066219285460
  0.5058785110031621  0.2989871567499482  0.8549768095997197
  0.2435716304046715  0.6425712450916663  0.4022035916067029
  0.5191493729464849  0.6985305665370950  0.2036549279992968
  0.6514635040320559  0.7180882381387881  0.6682404335884452
  0.3156553379036762  0.9420721497873089  0.6278166589081762
  0.7437099139089953  0.8628001649093616  0.3103175352358727
  0.8038040635635958  0.4920247024112552  0.6937557764074536
  0.9353565576791971  0.9798554378676397  0.9092530126139168
  0.3733769568101487  0.1987811043596896  0.7273245529237704
  0.9356535254919810  0.3315901773759964  0.3570582198158147
  0.5744636361342921  0.1417913672463784  0.7940108677710871
  0.1964417927050278  0.1400693892443640  0.8965577182476769
  0.8279547028496702  0.2356475693494358  0.8074695509731924
  0.4934504558163204  0.7752326172325498  0.6871978522299760
  0.2099655471077981  0.7844207291619710  0.0464459132353837
  0.1580052709928943  0.6850379077539777  0.5032597369229644
  0.4255868074566667  0.9992224746077476  0.7988164482710209
  0.9844032817334895  0.9872009584824538  0.6700900854534816
  0.7135988959764935  0.8344236003875271  0.4759667810880343
  0.7126105781769589  0.4484014366497086  0.7994584274916133
  0.9695958741388947  0.0769317043883582  0.3695615786927589
  0.7607383158517195  0.4379103081016282  0.9986926678913404
  0.4252927594203761  0.9691875301246057  0.1212412370712150
  0.5000406037089141  0.3119052300626213  0.5193178705935667
  0.7156723619814470  0.2998227967823097  0.0277767511871105
  0.9861111917214910  0.4205019370634446  0.9277987958567481
  0.7737565374981102  0.9121584556589039  0.1855506680490866
  0.3125949078137441  0.5027163399741523  0.6783695629382107
  0.4785206830432369  0.0855891734835584  0.0780029637478674
  0.6100939872022081  0.4578581149296616  0.9157276966179148
  0.5445722915677714  0.2878839634186195  0.6008748194682678
  0.8459946215433387  0.4290069805539871  0.9685307396741657
  0.7880046751771387  0.4051179001548603  0.6961564697270298
  0.2446795794101603  0.8741717387872633  0.4354235344623471
  0.3869726040732090  0.6883455367391954  0.8499123776419502
  0.4103809300010146  0.6891873879324606  0.2985619576622665
  0.2487664701979976  0.1589824538266206  0.4300237794460418
  0.9314309978143220  0.9397098913437527  0.2481558122161506
  0.8795052148771723  0.4571593858714098  0.0417549638241597
  0.7166717749316558  0.2581748129052763  0.9138575532305805
  0.7961858889111596  0.4351519687050544  0.3772101455641472
  0.5268913992090792  0.0777121739167090  0.8962364366597313
  0.6865396284347121  0.6557090714005885  0.8898773758048653
  0.9514842351171835  0.9994328046889507  0.0301266520084520
  0.7124342236767682  0.9153930371449457  0.7109044200548533
  0.9074824601484242  0.1529422723799488  0.5769456585009159
  0.7735508790592964  0.5619969868108946  0.9189047319636172
  0.3598368649307277  0.0336712971684352  0.1110828966848057
  0.4944006041740617  0.0245428863734807  0.5186784395415501
  0.1647537636734002  0.1378203252267655  0.7289858526615710
  0.9474807437633619  0.9269818954807887  0.7196305171693557
  0.6989512797863463  0.8055269440419808  0.2012296023834867
  0.7732491334304328  0.6699604473771822  0.6128300832105881
  0.8249754160028271  0.1933454095490950  0.0112927175165716
  0.6091465993604241  0.3516210651169734  0.0205217453025503
  0.5482839114459611  0.9145332425979584  0.9436061472700049
  0.5701877030902297  0.2895689664328606  0.7380849379513716
  0.5769337670475617  0.9605722783431553  0.8762243947488469
  0.4534308312895594  0.4002487481576423  0.5689358091036247
  0.6030810025865498  0.4597813982491726  0.3051134052446136
  0.4696697256685151  0.7173173109708856  0.8440862025405205
  0.0054948650766082  0.7830126005895560  0.7678583235475659
  0.1674204353597981  0.7771342411191654  0.1911966796691729
  0.6902476914942646  0.4086935646221563  0.5160951274740339
  0.6125354512189989  0.9298081329525413  0.0111406684967229
  0.0226600701607874  0.2111595897047031  0.1873525682967474
  0.1607667292416314  0.2079025524830861  0.6156148598561370
  0.0110440529266657  0.0690422824997013  0.5691854765372183
  0.4474576056265618  0.4176798403656278  0.2535252281003489
  0.1526236053191357  0.6809979457374133  0.9970703338980130
  0.5904631088408031  0.7688461635654924  0.5759655160755625
  0.1442724340497863  0.7952170008970165  0.1099666263163112
  0.5742196489931489  0.2955918017528204  0.9069108209978958
  0.2180547215237257  0.6123592028924988  0.2931073639347339
  0.4723441878494653  0.0877338687632353  0.1641158323247642
  0.0764658075978742  0.8747186394678674  0.6769669023108648
  0.9178605137159488  0.3346709131842677  0.5068758004795576
  0.7461471840650049  0.2688962852752497  0.3088454635582559
  0.6342121373389399  0.0832879184611435  0.5806013779309717
  0.3741009286633556  0.4190309536661570  0.5433949315120118
  0.7699589169304839  0.1636963798880896  0.3443516444949418
  0.2936614578828803  0.4685816045997576  0.0321373759980795
  0.1323317957333549  0.0556444899091911  0.8228765744858052
  0.9352440135670946  0.3010578887823672  0.2413284722986161
  0.9567715787384996  0.0482607003147487  0.7705228584884392
  0.3532109630478033  0.7898234835850375  0.9366685459747172
  0.1551736982931858  0.3537437160841265  0.7442911086916835
  0.4299900427558337  0.4563830438452835  0.9944808637564383
  0.3733106778837525  0.9986270525505108  0.2713101972193135
  0.6421329070097649  0.5579057959885854  0.5763198176813041
  0.8695066791669218  0.0660925318464295  0.2634425143938197
  0.3382713161214881  0.3330984011952839  0.0335924797927573
  0.1558968340285787  0.8642904719183498  0.5712009717070700
  0.1789336714844665  0.0761503323836367  0.2607466582142010
  0.8791158228666667  0.6003078519601287  0.5038116277670296
  0.4669580496089876  0.5423739653025985  0.3195873743636819
  0.6993894055208664  0.2107081391720049  0.7040074832830895
  0.1358654154191483  0.4589843523533671  0.4419899790785004
  0.2155010850027497  0.4842610167157657  0.5439548384697220
  0.7502251031759813  0.5995022059953793  0.0334775965415323
  0.5518346250959513  0.5331024008523161  0.3412606098386762
  0.1360353596827655  0.8746036002740342  0.1487055439711636
  0.5005228446119045  0.1612194538586175  0.3279423944293177
  0.2029757216284156  0.4321777516519404  0.3861561549354349
  0.0717034862410300  0.2033384905859877  0.8516331346465219
  0.9520576792204533  0.6463019231473298  0.9540247591873626
  0.5163452196023902  0.3448583318902074  0.7820576213288895
  0.9081449839781599  0.0851637554126396  0.7065514049113698
  0.1288505462204808  0.7313965793949149  0.8673630854392855
  0.5578603005621363  0.5381977293540685  0.7764975174962607
  0.2181340598140735  0.4104818215505669  0.0215227873553252
  0.5884797842992223  0.8860497080827811  0.5451441961525265
  0.3542458380106934  0.1532710657565087  0.0166159934668394
  0.5039622351472348  0.8259695202685028  0.4416549214541913
  0.8462415284609750  0.4849160553003097  0.2429501427063769
  0.6793166322589228  0.4718771297842397  0.5748558948344457
  0.7997868758036787  0.9308623315271322  0.7920274370558158
  0.0859107536850089  0.8610772844309766  0.5052769839587120
  0.1286447816079763  0.3290641194711700  0.2168961011243680
  0.9911473283906989  0.2086632471615510  0.3429344911588203
  0.7954110333167026  0.3439483968178046  0.3067584073208975
  0.2237978157122117  0.3900882179388631  0.6991220070809321
  0.3158203052755436  0.3503900608040065  0.3132271190547957
  0.9395023217785069  0.0818586546884307  0.6176997395328367
  0.6271442078383634  0.8842785716619898  0.6951557826925331
  0.6216107005152458  0.2121452398902597  0.7549324730120519
  0.9564712133676145  0.4892554271245431  0.4763667373807610
  0.7590454294409469  0.3620096033364509  0.5222804350841305
  0.4607113205188426  0.0154246898193607  0.9158350382191748
  0.7508387871080121  0.0745929169662940  0.3275994003216316
  0.5057359728234474  0.5485937262753151  0.2342048016104419
  0.3155442536798203  0.1056123702678180  0.4631362745267353
  0.2270212224173112  0.6910450559111422  0.2557015764115548
  0.8298871171065783  0.8245635151699010  0.8716402925676359
  0.1390517144193612  0.3866961277827231  0.9968086157505293
  0.1144860421764859  0.7925024050609956  0.5793236306506904
  0.0929539579873721  0.3394913580008942  0.5004031337756822
  0.2655629888003142  0.6535472688850037  0.0937265507550469
  0.5053218423430170  0.3982573013287258  0.5026724902399086
  0.1429151361317759  0.0785562282140555  0.6020823859390210
  0.2269618713242307  0.5766233151760638  0.8208759436326465
  0.5800646699246713  0.4088264940828661  0.7868113890677798
  0.9170765271840947  0.7341053356779492  0.6281602900580063
  0.2951929602838456  0.2454344478073500  0.7161082049816178
  0.9479717970826773  0.3272535129808749  0.1558816511908139
  0.1588949136186691  0.5780621810319259  0.3494969808049964
  0.6763698345614225  0.0077961773332782  0.2683957294106200
  0.7833099400102570  0.8202423521336162  0.2342853078113870
  0.8994089065367353  0.8810509445526864  0.4793854677536852
  0.5796141749551891  0.7617421880969362  0.2262578601248685
  0.6309548877699415  0.3062460927200269  0.6202708416259267
  0.7982674241166037  0.9352373246245829  0.3408693332451611
  0.5351962522058769  0.5092841383048615  0.0565301178422877
  0.5787120171056274  0.2740840379747241  0.1299393308748050
  0.4787846308382245  0.5426664738203745  0.6419493857854542
  0.0324133346918234  0.1587264557867213  0.5797447685947043
  0.1091796271059846  0.0188317023559305  0.9816095334110796
  0.5765735197151429  0.7856830281702609  0.9201078922262079
  0.8436534385773790  0.0359568948894051  0.8217176886522209
  0.2209139524698518  0.2759106501488865  0.3670125341839041
  0.5055886037408073  0.6568569682571892  0.2828369174026960
  0.4485395155344156  0.3333007947931098  0.0728135255410538
  0.6740751025851277  0.0042977811841031  0.1345872169006817
  0.2951613205240281  0.8049790347113155  0.5804722707231257
  0.2721806622222123  0.5413942475720076  0.0779712509936375
  0.9958622896456518  0.0763995220356223  0.2911915924038372
  0.0985806592674691  0.9799267865877651  0.2581951186236155
  0.8837312462866231  0.8514535418487658  0.2825480984206706
  0.2929769826426000  0.5943983305115286  0.7597460165387852
  0.1168884077316901  0.3775886813147827  0.6028417932614866
  0.7060881160121628  0.1656662336426676  0.2795590170508638
  0.4398238234415982  0.1765184721844035  0.3933283735436647
  0.9418813556651879  0.6342706390424949  0.2995518149803156
  0.2472891960095382  0.0331385009990502  0.0481973975696188
  0.8220679556577174  0.3693815877436628  0.8546004769531654
  0.4386085859216947  0.4644809643189795  0.6254375719346499
  0.7478905029788425  0.6932821355734069  0.9400069653302271
  0.2574455323675363  0.7938495368481250  0.3788198714317084
  0.3071663266404239  0.0477713723179066  0.2525117736795500
  0.1676608258671700  0.5713174973325725  0.2278954034993833
  0.1257466114607996  0.4891077395208311  0.2074958143458683
  0.0017166114611147  0.3951113748743875  0.0527867420768064
  0.3322414202510992  0.5336462755827363  0.8007340512980814
  0.8146284182398214  0.5083031464899828  0.4296557018039366
  0.7578108948527652  0.6412534172431597  0.7643076629844210
  0.7939211510024771  0.9462246028291305  0.6984901143609525
  0.7053073677778740  0.1319081627076104  0.4046239270590517
  0.5123343491770673  0.6272778274280626  0.1321797151931918
  0.3171301700972503  0.3479734679742535  0.3996461859197084
  0.5966370027791534  0.7812855262503898  0.3152665829353145
  0.2994511357781446  0.0356419339539818  0.7690157229494811
  0.0591965307303146  0.6023830698309780  0.7089993986101363
  0.7975637579817361  0.2630872572248620  0.6396853910926065
  0.6119084424887898  0.8943106582584897  0.1004405900729328
  0.1710566453741945  0.8057135973901661  0.3678502976900788
  0.2257220280515160  0.1418308107724596  0.2714450908933005
  0.0343079909299894  0.4654505424621120  0.6913159049960228
  0.5151310703628158  0.5709496585812711  0.9993147395449337
  0.7683753894210936  0.8797664021562027  0.6417255716455371
  0.6732374983394891  0.8329329748574669  0.1210839274767867
  0.7244884943856315  0.4566796931369953  0.3187528226116497
  0.8071744942868405  0.5302014171023368  0.7719892764170282
  0.4274259746697502  0.2612956823686182  0.7557070631722821
  0.8325734176540374  0.6464670232363104  0.0317547492424256
  0.0896794618294968  0.8667592756604863  0.0400343096753508
  0.9762169716623167  0.0534306523313978  0.9361915075825693
  0.5671540553137673  0.9224852273338383  0.1852256172951225
  0.8572391586003623  0.6200058320940325  0.8667320421088313
  0.9115371272211452  0.2938265579718609  0.8905011993243545
  0.2132349137492432  0.1666980693836625  0.8023575001151607
  0.3140226254320866  0.7406783365195009  0.6440774250674084
  0.0336451585329652  0.3339770681157864  0.8221134510841664
  0.8710785806571844  0.7006321685700743  0.8364694081460631
  0.5479759546561938  0.1429446789612029  0.4612141060309762
  0.4024375984209236  0.2935986561448533  0.1443316258823308
  0.0552212981678484  0.6308902279923279  0.4074914660964722
  0.3898055835743188  0.8508505814594920  0.6919637237696018
  0.2091153612798158  0.6322241942418151  0.5482652779632498
  0.5396891511868086  0.0159472916554782  0.0585955013750395
  0.2719594758811390  0.2801141992793396  0.0429957327987398
  0.9283361409051925  0.5928489378436865  0.1454074573463942
  0.7030761276685955  0.8929996255261856  0.8854428723537980
  0.6682845487569155  0.9372699137586312  0.4015758662040818
  0.8889936921774787  0.5597672862201306  0.2105499934597627
  0.2100961540190247  0.5932794190724788  0.0464836314389916
  0.7640289039595859  0.0029630773177844  0.2839789216194649
  0.8663371290664110  0.6886045474575673  0.2897784471245383
  0.2825305532182886  0.1411575633999669  0.1511097941093771
  0.9530192943367861  0.2981710792200915  0.5756614346255042
  0.8484610363774352  0.8819149860473003  0.6704646131472944
  0.8486136610577629  0.3788577754392750  0.5292278574458046
  0.4224000041314232  0.0159796597004551  0.4072742081819535
  0.9213006474671137  0.9926407675235616  0.8244203930348876
  0.1441946352779532  0.2379207480665261  0.4902020717504925
  0.5320823371192734  0.9918823688511573  0.7342287625933448
  0.2316481391392821  0.5100086144830992  0.2309941622916446
  0.9325896713005249  0.2451830815947059  0.0430329168159666
  0.2698575022402425  0.1960499586996368  0.5671667430698014
  0.1604691243867035  0.9134256386569642  0.8677436650334662
  0.4002786095081413  0.6982598236259050  0.1253456199745889
  0.3673430263395147  0.7279021378009759  0.7226873108103827
  0.8244921664497754  0.3311010882699583  0.0666885312231093
  0.3630605636134766  0.5665042192400657  0.9285544340131952
  0.2741857258269563  0.0142959639497803  0.6201338244781264
  0.0690316186796453  0.2675335990424381  0.5412984789030298
  0.7078771957866761  0.2229568935387398  0.3788869201173620
  0.0166035578733205  0.0920583430914975  0.0927352667280294
  0.2813566968943208  0.5892736980711533  0.6693853575817074
  0.2669258342936617  0.8635682253876162  0.6418720382518064
  0.6510740589347046  0.7457989874464763  0.3739410576286402
  0.8458813342154016  0.9191228127242386  0.0558451847279664
  0.9958712082356675  0.0387458388523125  0.1648143092205007
  0.3761502666971060  0.7184398323154179  0.5881925844659794
  0.1033516603235250  0.4222369478859878  0.5205367976492208
  0.7930951727759661  0.8959360712888462  0.9069020085815708
  0.5105416594970715  0.0767869962838405  0.3130838111158236
  0.6265640747925820  0.8443742517632886  0.6118027465797350
  0.1165343582884637  0.2812151939080900  0.7062247084652006
  0.1161225370858054  0.1483487207402686  0.5630326580764647
  0.8816112762051594  0.5708838839799055  0.3298880803975586
  0.2730030305432409  0.3263928955877850  0.9107044069652770
  0.0217185583691960  0.0601229957191824  0.7110620879854875
  0.7111143254412938  0.3716888747588784  0.2169047808235797
  0.2795642195617064  0.1004303509476395  0.9879262309633713
  0.8582775372950443  0.9386784139389637  0.9425117088666529
  0.3679222834523481  0.2946703468349807  0.8165096036909846
  0.5957089916359154  0.6075985338637153  0.3823883691748846
  0.4252917773137375  0.4128822228924939  0.6988951669908312
  0.5069680123298982  0.9620701767710259  0.8141055128133072
  0.4568115608607985  0.1099562212946262  0.7215114902731375
  0.4521794681714079  0.3067029846543715  0.9321488381368931
  0.0973262569274223  0.1015979562955694  0.4023590564332559
  0.8321490414124582  0.5633457112033838  0.6485908686574834
  0.4605078917275327  0.1928016940792109  0.7021479572648215
  0.4408627860915789  0.8761108419866831  0.3416672816173373
  0.3859446834870572  0.9517911832568896  0.5707491495664545
  0.0155393374977095  0.6773283175538808  0.9947292040188986
  0.5644520410600901  0.6711165726948094  0.9345191657809397
  0.9009545831254041  0.4075073125198037  0.8228349013122200
  0.2123900498775054  0.6337732683885852  0.6383941597536108
  0.2943456676889339  0.5235016979609791  0.5503825937024470
  0.6707669958183020  0.6571607842730209  0.1629300580040196
  0.9244050600084028  0.8260965570893808  0.7850870221577255
  0.7345048672759132  0.9956757424711573  0.9391507806887225
  0.1564240129461421  0.5246957803730181  0.6386963831640826
  0.5203596468463499  0.1595873651574604  0.8580358328882505
  0.7391562835770045  0.7329381152096478  0.0620329077895255
  0.6989861578437291  0.0264058895801179  0.7983793842734074
  0.6730432535724215  0.0676602792910448  0.6568419977668057
  0.2260306218834274  0.9754534766527606  0.5113971540095870
  0.8597283476911060  0.3495659140736592  0.2536042213262020
  0.0173276076978315  0.6713236644784472  0.8313954205561339
  0.4881522824785567  0.8639715792384441  0.1036296761325255
  0.3013221020115815  0.5004819677409993  0.1298989052420851
  0.8879126316591502  0.4610415206968039  0.7024099939333772
  0.6596535301824018  0.0792118043029085  0.3503780100901162
  0.5610033072399816  0.1762150543199119  0.5379158382053588
  0.9250339267781985  0.3932767465865799  0.7438482582279290
  0.9504685775923033  0.9125275154076478  0.8570797388038323
  0.5953271379574466  0.1798014290582535  0.3928944947567712
  0.4613329674776732  0.3372663290525195  0.7102946114625317
  0.8227983775626322  0.2515480881762492  0.1553974328028350
  0.3091482443806035  0.4495810794398175  0.9151811144583827
  0.8382547187545578  0.6044667815970806  0.7287945807578420
  0.4817688016748381  0.5611214785576891  0.9155545273284438
  0.9179005411973287  0.0007815638224243  0.6006677807714755
  0.6436323449561501  0.5730297604418911  0.9069502114371316
  0.9015565879514621  0.6598641256978313  0.0893782006180968
  0.0422484160052985  0.8899669863997844  0.9639893724034464
  0.5762459207926028  0.6959825041348788  0.3987318180957204
  0.8279163741473411  0.8604721474810441  0.4285887358430436
  0.7648619427365261  0.7158810994572901  0.4958635183708588
  0.4685597859063264  0.8687090493158176  0.9414424336279880
  0.3366749415955278  0.2728612090359380  0.2655420725832536
  0.6406603310071174  0.7792809669706763  0.4960590903090597
  0.0382526321978334  0.3527575483018279  0.6472941693734188
  0.8441271855851165  0.2243253131508471  0.4862015001731640
  0.1859889265007199  0.1603568457088277  0.4866462086765052
  0.0308396746998092  0.4273261448571045  0.3075798200787102
  0.1572027969671537  0.0019962493220846  0.0565892831314095
  0.7435026628648216  0.3355499517126876  0.1038648641290549
  0.6017442758211053  0.0365085302530272  0.9206408841533351
  0.9647328005854672  0.6682576868131778  0.6026571041265787
  0.6964916069816069  0.1943204689090080  0.5284493919458650
  0.3274006431727108  0.8896360960928339  0.8817190425011822
  0.1318503644047558  0.5782601949650119  0.0808132486225979
  0.1874913373104437  0.2200132146934027  0.9220181692686128
  0.5053178608296172  0.3607819965815852  0.6315668729229218
  0.2123028414623373  0.2018445205846716  0.1388611591880442
  0.0960420994105672  0.5790100997421631  0.5098470181259103
  0.1525806182461286  0.2130224867376496  0.0011349957163327
  0.0418428192352553  0.8263618851423471  0.6192456815557322
  0.0283097248656346  0.2714634589417851  0.6170665727285692
  0.4148724487239677  0.3070591973865452  0.4861032895093010
  0.9480668225358205  0.7130138789409417  0.7973593205403647
  0.9276336957677674  0.6352219022239881  0.7438123715204850
  0.2626852836320127  0.4114308816279789  0.2747675841952110
  0.5134191788614144  0.6705997722555082  0.6112055726566021
  0.9852920616980276  0.0127484127318857  0.4310575130417574
  0.5409649342538126  0.1362870709599043  0.0457751443549824
  0.1792029146922760  0.8909327422900531  0.3857819457626939
  0.5181289906923702  0.7814488213866292  0.0783707626840346
  0.6984870353239233  0.6662618868629441  0.2801402118335519
  0.8593820621990093  0.7726600817946356  0.3189479167682425
  0.8160457839233244  0.6354199161570743  0.9489526296370201
  0.9634339778275893  0.4733022461471610  0.7470771594215204
  0.1331023512933400  0.5616572840876188  0.8274939621190390
  0.6354598374647634  0.9943682134706451  0.3464010090721149
  0.0437663480814260  0.8484081618794851  0.3502264471466950
  0.5489634230662029  0.9563631285505199  0.3613029112513995
  0.0960645352385754  0.3753327027355799  0.1521471508822864
  0.1801448080455683  0.1007012730269325  0.4183153695345126
  0.8072688296109944  0.5430455669828860  0.1193648825229769
  0.7044860081069066  0.6062317599438133  0.6146310544384556
  0.0905766693307314  0.2105573858029751  0.2444793623729930
  0.1054250533340662  0.0859318158908942  0.4916297893688349
  0.8163707285035977  0.3532307378976892  0.3936432316233252
  0.5490327013993606  0.8444330189010705  0.2210805655339244
  0.5388285072502961  0.4317071633115003  0.1093744823717735
  0.4753588836221445  0.5778160173301241  0.5568367861841471
  0.9853291163160689  0.8431641371239597  0.1513848237833277
  0.0483005220846029  0.7755726915637425  0.8544303867007238
  0.9657700113695520  0.5354787803967306  0.4047811172080780
  0.2871818102588439  0.1086539677993688  0.6715887801840320
  0.7778889767992418  0.5873953793096379  0.8321369906985679
  0.1168469999923316  0.6485644314085084  0.3521737788071412
  0.9668018072954129  0.2177745424257779  0.2559747082307847
  0.7646504978315711  0.9981743279335247  0.6311749327438401
  0.0963527769011579  0.0294233807069965  0.7394929603500963
  0.5703103337029451  0.2148702805630995  0.0058978398541812
  0.9655338810815179  0.7150999265282386  0.2135940329861988
  0.1872099903018986  0.2841954894049943  0.2908899529486643
  0.2749485572509457  0.0223760372896614  0.3798859880030762
  0.8936845520046512  0.9163958476532557  0.7872388974332334
  0.2308351406464544  0.5611142587467240  0.4406130921145627
  0.4635338949982674  0.4154144654148013  0.0582925347487333
  0.4006279474938444  0.5849507831689726  0.0494139722144392
  0.7520315954357631  0.3004132817629308  0.1856349566877615
  0.5873023711566173  0.6174767747824449  0.5980008038357169
  0.7238093012864616  0.5180184638803902  0.7388561836403461
  0.0184635019504955  0.2352047188856814  0.0392234645176869
  0.0001672048216859  0.6932390821418432  0.2948271653760897
  0.3182450734794776  0.2574649090660822  0.1204384047092683
  0.2925840072700344  0.0867583581651369  0.5886561387994131
  0.7724803828231889  0.9940720950473866  0.4708402375212270
  0.8819511912758163  0.8988376920809695  0.3575661812953680
  0.1382795131671708  0.6821267844165401  0.0886956829552381
  0.8712560499811272  0.5114803410962212  0.4945951674622012
  0.7968337076847386  0.3589261335556450  0.7634989910694879
  0.3826904333248202  0.2551884124211588  0.9546061663174321
  0.1666658589402577  0.0020054256736188  0.3138592241221566
  0.0985423902878408  0.0153433541364573  0.3745560421883817
  0.2425404449775319  0.8004710059794643  0.5199967451716647
  0.0254573636890871  0.6226971228049527  0.9041312999500347
  0.9756805821770883  0.6134309201260489  0.4371708348895845
  0.4042520802509280  0.9539383338031632  0.3424466230502248
  0.6654698842174450  0.2743809792440852  0.7885188743610185
  0.7135188941005791  0.8181829541426755  0.6056989272772221
  0.3563120045744139  0.1738913634694889  0.1035517512794347
  0.7640235421882076  0.0826735178567006  0.6011225226885841
  0.6985949077936366  0.9399358289574831  0.9934155169443279
  0.8120207923971435  0.7534296375075655  0.1889126314205010
  0.2996584133657411  0.7828244077228561  0.4548440561991264
  0.7411048362348934  0.9140233965353957  0.5078845036276993
  0.3916668880019054  0.6367488391562550  0.4159694883827409
  0.0508843816102116  0.4626390100465161  0.5742512887529665
  0.6207753790039563  0.3018814250139931  0.4806749472267848
  0.9001553075820947  0.6530312647483825  0.4356425973296071
  0.2557603170059139  0.6025562391204490  0.9701388463929442
  0.6578230957553752  0.7642117881417525  0.0636504706026287
  0.6057558363754174  0.3236010849352298  0.3129656663415386
  0.1318276299632426  0.6496285572231761  0.6696798833996058
  0.8232964383455312  0.7394835108916272  0.0501819099293639
  0.3356414734340390  0.8589439364644893  0.9994961903822763
  0.9699931760893549  0.8051551237772797  0.6530074287548286
  0.5126932693383529  0.9374195124887751  0.5374892323162758
  0.5293011172923617  0.6162220141061920  0.4948365002610777
  0.1006591088000281  0.4895359380152742  0.0854506035455321
  0.2005609602948265  0.1310495891580657  0.0099497115727028
  0.6253249747357019  0.9627251622687246  0.5470006431337655
  0.8298402414221506  0.1806013151002842  0.2135266657794732
  0.0151702611593265  0.6809019116342089  0.1458697774106739
  0.4295316909332424  0.6443679162850618  0.5989493595880984
  0.1667967312857109  0.4358999092689284  0.6567090152192506
  0.5873667124131590  0.4405929456567595  0.0352482153655816
  0.3604645372465035  0.8268528322879718  0.0732397200070855
  0.0178440813212410  0.9025878530088698  0.0856657578938046
  0.4432352902962842  0.7070808400198598  0.9914070292380600
  0.8069530690549633  0.5547955438943097  0.2845793869270083
  0.4147475088334803  0.6238062131776163  0.2491525708240928
  0.6864782600415091  0.5328829398337162  0.3539462423990658
  0.6284947902704394  0.3705795985822563  0.1754972007256295
  0.8024027301073832  0.7145478764236375  0.7704118538948512
  0.7437782897657822  0.3288224681512215  0.4432485089207717
  0.6249613298451819  0.7181005542869049  0.8862398651627581
  0.3291298144422676  0.8679401925348831  0.4623152333768399
  0.4700795561144734  0.4777314409136951  0.1238919030737454
  0.1096703419966610  0.8009807989551818  0.7940944264656388
  0.2757035583652488  0.1832533613607933  0.9098036293736940
  0.3690141736871242  0.5163584382268775  0.0017775066348605
  0.1040446493666253  0.7626036283361287  0.9810783464366937
  0.4078748062066102  0.3443054323960809  0.4061811500365801
  0.2871314573860470  0.8718765290293605  0.3397013961044478
  0.0749222544830186  0.7464253591345414  0.7196686335243037
  0.8950939015745091  0.9846921803457829  0.1010741218492619
  0.8207670094260263  0.2217024115684250  0.2913130285625328
  0.2769508603397325  0.4575566347350246  0.4983542469801171
  0.3091550129533832  0.2236607720209887  0.9860094773258360
  0.6757182466218250  0.6993959882896874  0.5010953331519582
  0.7680364299136527  0.4854266445787070  0.5695969526753819
  0.2816715018871360  0.2187938629429860  0.3700455714616452
  0.9615193476638674  0.9288054286179219  0.4484110453687136
  0.9761329882730024  0.5907446814684408  0.8030444438937488
  0.4383911156597947  0.4695185874198566  0.7367137047364618
  0.6443519902314624  0.3221718277983727  0.7143146128252513
  0.8502751200560995  0.4583484781199876  0.5613306938151401
  0.1381862926667689  0.1433384639081598  0.8224587279262018
  0.2438661296791474  0.9167653320967621  0.0998912009464538
  0.8984926275863154  0.1560344218599664  0.8453549781439409
  0.9763175181473743  0.6126625942135675  0.6716197829017055
  0.8843600599695735  0.6984971749113817  0.1697057046059126
  0.0344042506522866  0.9176351069706716  0.8284517018956629
  0.3004026378504419  0.2565487097459304  0.8614839296662151
  0.0097512057568154  0.7915175379064078  0.2130185981262291
  0.3437487637359359  0.0937478916668701  0.1847870668658399
  0.7245454565706720  0.3636285397716771  0.6517508100389894
  0.6498319860144860  0.5208010639652805  0.7064438509627284
  0.1768891776253526  0.1283610058762574  0.0956008216446057
  0.6730780254561135  0.4129385214919677  0.8674442552257973
  0.4678358405965422  0.8301128954597726  0.2630447612051742
  0.6103922821861252  0.0248363521134365  0.0104047852825948
  0.5893482850888438  0.4875798470253483  0.8365491976745960
  0.1614752793662694  0.7617073631263988  0.7092101533861019
  0.5195460909416464  0.5809283928982131  0.7142954484740868
  0.7529260026059065  0.4293173262517943  0.0929312699968486
  0.6525826809053321  0.9466242406007852  0.2001298022087563
  0.2309323957471016  0.0678585652942132  0.1239792176626042
  0.3015161875181132  0.0325207526054236  0.8583338624379410
  0.5017279160009271  0.8728926643358487  0.7965838279037637
  0.2148827161566183  0.0943929167452135  0.5422042466580741
  0.0661551743239205  0.1762776038954236  0.9998218250915391
  0.1130907208055069  0.9488054729017614  0.4329876445643162
  0.3798397493607925  0.9976216938736249  0.4843607668981433
  0.3001549611735482  0.8496449261151707  0.7179502654277717
  0.7448948122967921  0.1443253881780044  0.1329821494037984
  0.2502109632594647  0.9833757327552550  0.2315840633169671
  0.9286453186924025  0.7867480033744539  0.3829356680068286
  0.3877248181281323  0.5059500189838234  0.3338566936939975
  0.4135887822604321  0.8511433023246493  0.7814904414733689
  0.9255883657908396  0.5002169051222597  0.3399327220329794
  0.1763186931137101  0.3731730236938082  0.2722849247864431
  0.9254482165191648  0.4182153539179082  0.3819953672588964
  0.8664325261274717  0.5262868462144454  0.0501283220769297
  0.1688666935588725  0.5543896949617513  0.5572321239213300
  0.1245925167150065  0.7584469283466806  0.4214630743981694
  0.9689456664572759  0.7068812865682591  0.0673624620887357
  0.5243165279499706  0.6910748376313729  0.7859220251479428
  0.3894084408843946  0.5656356122767534  0.4712397691191910
  0.9519209275068796  0.3103391415819227  0.7248605800845591
  0.0366562908511514  0.0264451124639982  0.5085167679555963
  0.5634676516871100  0.3347474113283903  0.2322971258234583
  0.3158997231961593  0.9677915584397714  0.9217783229014055
  0.0419176152823994  0.6041337678163167  0.1755020316285547
  0.2324808063083049  0.7147976500309217  0.6805335951012996
  0.0648454886703167  0.7194632405197164  0.9185418302889319
  0.1657700980555584  0.2524104043483897  0.2071846988888037
  0.9492776273041389  0.3342079693495553  0.0077069823088199
  0.0321677582632482  0.7732850201378768  0.4348696794050046
  0.3675104357062672  0.7555329914064405  0.5056602709820048
  0.7858890051301467  0.7205748259741105  0.6832308846257423
  0.9954011773071033  0.3397518551509353  0.2913062334463304
  0.7228939778992577  0.6872440377854143  0.3647183596194852
  0.1915058176412489  0.2616096379719081  0.0713594702115712
  0.1842319775393435  0.4113477476281899  0.8776591729176184
  0.9701554094886876  0.1373716086666019  0.4400643599377947
  0.1262243134385141  0.5182869240572311  0.2926931803674583
  0.7323040990158550  0.5209689776570638  0.9853570399967132
  0.0813740116056891  0.3171954403735853  0.3731806947429586
  0.4168894834123340  0.0722329014419530  0.5149233415370340
  0.6059007103763268  0.5684837215287828  0.9930823439030281
  0.9475658950632735  0.5965936839133630  0.5565590888962186
  0.3727139551988050  0.7392902216877756  0.0455886469494054
  0.3156000214108409  0.8471983657612281  0.2619309461032763
  0.8554883544413330  0.1391589365752193  0.3193248068266727
  0.1400122810704988  0.8364427054628613  0.9439369844901101
  0.6479792551124205  0.3540351097781506  0.8166892495755862
  0.1554024096945848  0.3007101434020240  0.6249573483317821
  0.8520586257118530  0.9985859633322243  0.4942429362434274
  0.3785918368875874  0.4193901923485145  0.3055285974619504
  0.5091180826526649  0.7440548191431134  0.5504847858797099
  0.2289145912994780  0.7212393671039689  0.9796841797046006
  0.0834373911100297  0.9489200343139866  0.5165767844217256
  0.0034207249101931  0.2474691869586343  0.8247785699803384
  0.6134712130416553  0.0982373997255563  0.7111529195778497
  0.1566440181049067  0.6235580321756921  0.1525634181082412
  0.9198060404236537  0.8305006948649186  0.8731526837042820
  0.0389716702923523  0.0935754921366564  0.2120840573010153
  0.9168715057874249  0.2673462024784183  0.8000790127135373
  0.1083492692147336  0.3554116251341708  0.8731381909955064
  0.4351793880606680  0.1693966595358158  0.6204908865998253
  0.7594457042547454  0.6131639463808772  0.1200155945296265
  0.6574159196516834  0.9500847597005574  0.8352136919065942
  0.8985638701327502  0.7417204312933561  0.4558105022183844
  0.4469437780505993  0.6058582409000617  0.7575098924397362
  0.0377780557081377  0.4734778574315172  0.0173300032417270
  0.3797856804088224  0.4648994479207268  0.2279391470599363
  0.7683529336855185  0.9997382663969875  0.8490485484947178
  0.4732297826032836  0.4834093444561142  0.4273371338340881
  0.3741213670988082  0.1121424968459089  0.7007709375837706
  0.1184244888730653  0.2984241176683635  0.1004437951912196
  0.0261464508490556  0.3046411712119682  0.9806705332908578
  0.6211541536453958  0.3611063572065600  0.5449235141364840
  0.4751977119597183  0.1974764818639593  0.5471138773748572
  0.3460882479228450  0.1735237237938576  0.5171895658773858
  0.4052154737765794  0.8715853476827178  0.6039573071424351
  0.2446819683182002  0.9581919703721863  0.3229622112950891
  0.4375886814491879  0.5866465362693933  0.8428616482792612
  0.3524160937126564  0.0747161514418752  0.3861931033797855
  0.0701119691614175  0.9980115636657386  0.8493627164453890
  0.3290567403996690  0.9756917304146079  0.7118995860574356
  0.0740917705105100  0.7338561460259636  0.1074532893467974
  0.2433442329026945  0.1025094839733321  0.3549746407668254
  0.3108890947561331  0.3740021605876166  0.7089586809997671
  0.9220896241624288  0.5509834837047531  0.6323544162734130
  0.2825465589021560  0.5752617968538495  0.2413798869083196
  0.1559077301035830  0.5792733574081615  0.9071881466779069
  0.0709031224173912  0.2938755305866791  0.2813640494223992
  0.0492192994346811  0.9446762718981951  0.6257342212263617
  0.1560077589918986  0.4455790745176652  0.1353440627828601
  0.4090131474310513  0.2688347045346652  0.0359035326560636
  0.2141834827733358  0.9500096949012587  0.8023962004254073
  0.9900729568148822  0.4071429775002943  0.8391688742311643
  0.2289332778690346  0.4021713413481641  0.5469191017393363
  0.8232946864796352  0.1846292529463810  0.1040508074406838
  0.5034375778548246  0.0448199062959450  0.6043085297111477
  0.0273180659127720  0.5365208220837406  0.8930452802131706
  0.4729979523497214  0.5586171597160260  0.4727831098866653
  0.7959164200842574  0.8416063567345551  0.7923919844227063
  0.7403378374935453  0.1312310665388311  0.6734667804244754
  0.5778667152674156  0.1789711242538478  0.2361246873718517
  0.4141842308610915  0.2637277765572080  0.3033897815503940
  0.9230813926069099  0.9527696799900379  0.5198183733713511
  0.0808114635774237  0.8582487111380294  0.2724800189430360
  0.0998325333465070  0.2384395127191044  0.4123703860732312
  0.0723294332343324  0.6639313743528960  0.4959194719058381
  0.6735554354561789  0.1962600897051698  0.1101981115053787
  0.7024309632372833  0.8805307465552842  0.2391366226285736
  0.4022546346084890  0.0845722750536685  0.7819777787135110
  0.5590347408414027  0.9445489696430904  0.2777861022207540
  0.0134070263836700  0.4879415807894364  0.8138444847948129
  0.8537469997407726  0.0901673033946696  0.3985181169998389
  0.7205889470749688  0.3667289442561438  0.9620664606918526
  0.1637844111493603  0.9117193212743226  0.0727551565546119
  0.3077762148630136  0.9723237947730937  0.0702155548683704
  0.2586690248918889  0.5097122837124592  0.9569807409091052
  0.0084604762544047  0.7627958027162283  0.3541680923257056
  0.5570716954747387  0.9780847792284564  0.6023012099154770
  0.4299686487571652  0.9622966452532096  0.0350063450623961
  0.5390534362139652  0.3547026503147701  0.3735276969074672
  0.0763005283407906  0.9137380016548942  0.2011541659762709
  0.9852592540276128  0.8509712478589301  0.4111065475464267
  0.1729563315909557  0.0677353706337661  0.9509559148324456
  0.6599752364651099  0.1920409330421894  0.9029627523106001
  0.0007297334867319  0.8163896274205357  0.9201529098710489
  0.9784582982722081  0.1379951003933078  0.7167368594040321
  0.7614441585472457  0.8537750295951078  0.1129551502742419
  0.2065067533304992  0.9848567495663102  0.1577970245703706
  0.7758500703305991  0.5786474104148592  0.5803387042202719
  0.7471562057342187  0.7883437939451157  0.5424464288464759
  0.8406425119707184  0.6394490484571910  0.2161755799161077
  0.2498964767877216  0.8440711258764465  0.9869358427768689
  0.6555588356283006  0.8671948001395851  0.8151448470712052
  0.5637313871347164  0.5882800185002403  0.2733830527255456
  0.4676570971883113  0.2255451161394492  0.8331991522999584
  0.8846085594925698  0.1398569489610591  0.1531075848163107
  0.3675873585451524  0.6538997124511586  0.7635832929798742
  0.4023121807488282  0.4717681955776197  0.4722090818280970
  0.2601552176703639  0.9265544402021803  0.7497488610865133
  0.8172885469725322  0.4857760091078330  0.9036240020560479
  0.5643139621753831  0.7273297554346129  0.6513646032392033
  0.7544879768560920  0.7731594697486682  0.8907147677031225
  0.5717760615025450  0.2027888824762717  0.9172273999985265
  0.9448966884800111  0.1303400436550777  0.9207986582576601
  0.8786633636839071  0.3866446335427517  0.4492578867254400
  0.7215929254938759  0.5108636312140065  0.1132445532115660
  0.2740311369333513  0.9021706965782557  0.2044286156831565
  0.4127090270596002  0.9727787490375838  0.7150488038961845
  0.2506834627263368  0.1901684405619491  0.6368443954778517
  0.3661268332563952  0.4934363347154622  0.8674554034633170
  0.1693029347103833  0.3522381466071055  0.3916325938998213
  0.7632537298440570  0.9955093682978887  0.1462147357316373
  0.0015160886561604  0.2858622040010187  0.8999606912071099
  0.4196242522495807  0.9369307949906542  0.9074844774485468
  0.4184017418318667  0.8341013101495202  0.1423653953049467
  0.1333751247763641  0.2685232440131060  0.8618006988723076
  0.0318679038532495  0.9917959434669579  0.3177293082336604
  0.5849000321448359  0.4690335329140637  0.7162690581229720
  0.6439133336284892  0.6017817020470640  0.3058178942255839
  0.6778189461784335  0.9979058146698384  0.7178787574471104
  0.0780627461715662  0.3420965949355322  0.0367762040809715
  0.3182994344090969  0.6078003700496653  0.0377014679799637
  0.1987745083191572  0.9816545510559206  0.5979437354769856
  0.8701114975957823  0.0797635027071593  0.4814816018415953
  0.0655910602337178  0.4567554480652832  0.3896364223416703
  0.1096872767003217  0.1952654280276181  0.6892101621891078
  0.6084943743786826  0.5953786321974180  0.6833381731401571
  0.9931027292516353  0.8973981891829635  0.5842946828475220
  0.6787117076563716  0.5705652567342265  0.7772709397458938
  0.7414004237896986  0.2357199267196225  0.7858825285350163
  0.6895853269250647  0.0177675748822989  0.0463456023232022
  0.6746091031623163  0.1460118112653581  0.9840696839974270
  0.3909957375598033  0.4324388062138576  0.1440653688095712
  0.2685385861114067  0.3165938602422899  0.4770646170494874
  0.9755591194749701  0.4924648985327431  0.2710287042219437
  0.2904733008430809  0.8530041555140504  0.1344472932480995
  0.8927539396059919  0.8701949501166433  0.9884970207243744
  0.6247543973220802  0.8015713370226480  0.9916433718734754
  0.9558049734587056  0.0672039314968648  0.4902284028257768
  0.9098425951181672  0.0844828768061305  0.0273538564003088
  0.9166319779412897  0.8314777582532428  0.1005043075590418
  0.6371783117349860  0.5460951408129477  0.4285801888609452
  0.6535257156257990  0.6534553224688896  0.8065851772168168
  0.5737438315984437  0.8348012602052147  0.0495527777253416
  0.8456765251661130  0.7728471598375836  0.6528977513323739
  0.3724991392791715  0.2250437639721395  0.3728808602405269
  0.5614925025197103  0.8480231760771418  0.7317440327976088
  0.9263063122871014  0.1378507572608518  0.2686972626921023
  0.9347289649936894  0.2231811854602649  0.3833667597343422
  0.2752647159583169  0.8174441976030438  0.9012212914363491
  0.8382736707583410  0.4169432072998093  0.3029390476901078
  0.2593399895300323  0.7395541694827633  0.1062197235935432
  0.6528183864986037  0.1551375859666491  0.4635770546035218
  0.0235421230266438  0.1922371552942455  0.6612861099368780
  0.3887128174065948  0.9199003226609622  0.8277031773764901
  0.3879865362756160  0.5359670201132434  0.7291166055616222
  0.4640369990314730  0.7576801419527139  0.3930122679231389
  0.3643388417622112  0.1589781936072827  0.8128312692648177
  0.5322625138723281  0.0806547843892838  0.7436015636576742
  0.4219011470458441  0.3911952644679813  0.9321026525814547
  0.1725195197558577  0.7435297371559406  0.7968324336004506
  0.3690531394315975  0.8398302301503028  0.5317499603806536
  0.6874520851322681  0.6367532453644175  0.6967681894457834
  0.0979582292776698  0.6097491350549354  0.9659105853359895
  0.6517318049483606  0.5253144544685102  0.1243513564483773
  0.2735282452475270  0.4491416796210096  0.7315911426830544
  0.3626339577243934  0.8910037724891066  0.3863480638813078
  0.2801477236221663  0.6776504485313517  0.8417364725924624
  0.2355527297002513  0.3240935450559464  0.5967261355924648
  0.1131902320970807  0.0588204635179870  0.2077773604300834
  0.7658783434772409  0.8936479220813726  0.0364093872514430
  0.6015135603912951  0.4784943519679525  0.4696229561577782
  0.5573644163398959  0.0322912913523343  0.2477757104035778
  0.8121805838015909  0.0211393593200996  0.0773494381384153
  0.5273373817967082  0.3808574507292179  0.0001244923072070
  0.4626773387488454  0.8682103514907745  0.5095531293501557
  0.0327735289373969  0.7096775830592449  0.5607287951627730
  0.5503623145275305  0.1153177670540042  0.5986109309491106
  0.0710027000675216  0.2248029620417163  0.1154759658530917
  0.8139815550294583  0.9977533492500467  0.9859838894663863
  0.9508127926974321  0.4527771198761487  0.1862886415577496
  0.0878957570980734  0.9530894751463141  0.7742476969911163
  0.7122802718253071  0.7740313680963908  0.6861176941880182
  0.8709621081185273  0.2665667283284175  0.3523769421642244
  0.1762174830430858  0.5484830402027991  0.7277543971104187
  0.3301746962755028  0.3685475934035066  0.7963512544343671
  0.5307324448161868  0.7295464497482707  0.3340619539814713
  0.6543519592865368  0.1065740716502745  0.7914277149641069
  0.0260003011048943  0.0772438218596284  0.8637656553654038
  0.8659767224734563  0.2138657845474501  0.6268134237051035
  0.7100329464018932  0.2770587593528687  0.6414666140140105
  0.9966616713626519  0.4208919661160943  0.4380896089217349
  0.0407594428032992  0.3241925254790668  0.7309017038227357
  0.2071769083942514  0.3601646762006491  0.9525617919037201
  0.1677968476366203  0.6752571342832765  0.4168789987603810
  0.6190355107350652  0.9919246259800412  0.4630167229510490
  0.8672943379745813  0.8220668939208108  0.5744344914562051
  0.6468736684715488  0.5017409222780334  0.2352936393516114
  0.1567797744401304  0.2202873153475600  0.3463654143423202
  0.2276454971749857  0.3969739799296847  0.1072938629144115
  0.6998676649104568  0.2567475199816965  0.4693321995058981
  0.5711473539932854  0.8316454065107994  0.8437561085362498
  0.0410768357798243  0.5554487775261127  0.2944978942179217
  0.7273462654435109  0.0433424927545166  0.5308094738287628
  0.1132262249782153  0.4305016406842924  0.7301934191323242
  0.0287963786126431  0.3346909003815350  0.4377178948307245
  0.5385823966353398  0.4220162658699452  0.2546248690145434
  0.5345818781448567  0.4176398128842480  0.9163883093212186
  0.8367808155807769  0.4123178566397758  0.1008062854428537
  0.5520211191836006  0.1297283504797467  0.1658288784650516
  0.4449716813768060  0.4935567887675192  0.8242825795844071
  0.0403054175586025  0.1425962434518703  0.9170364997027148
  0.4309646110624274  0.2183067380502252  0.1137185656535300
  0.5332781183103630  0.2409419204343356  0.6742370174633885
  0.6836226124574427  0.0702871424792998  0.9313786541848252
  0.3206303716139077  0.1138454830290060  0.3189120566042212
  0.8639214652564513  0.4881393823751412  0.8231425926677608
  0.6400649620367259  0.6806008030474892  0.0794178078062170
  0.7704895199495710  0.5551331762306175  0.3659851179227829
  0.3312375745493052  0.6008600082384203  0.5314440739778541
  0.9882628015627724  0.2270666647569149  0.5357433652338622
  0.7383286596582881  0.0622568281031333  0.7229971787265820
  0.6389296998493139  0.1755446470936444  0.5861380173779639
  0.4075088254948956  0.4361862862560685  0.3915712785934636
  0.9145257042659214  0.5508635074343041  0.8608917459065434
  0.4780731078502479  0.0149744403765381  0.2167523950340559
  0.2445379702502388  0.2418032544998375  0.7931688042304406
  0.7635011676301465  0.1288164511940667  0.9970668301662211
  0.1335160172638736  0.6921027582175246  0.2772955266830466
  0.0715924882832977  0.5065634374816277  0.6263909055031111
  0.7007692918915652  0.2461147026434265  0.2383475663029905
  0.4563200297598751  0.7446132927559996  0.2450353409041486
  0.5337616332976414  0.4838114242226541  0.1855341447684772
  0.7592308617916893  0.4312539078260608  0.8683013954305179
  0.6899866103889247  0.6943443502616428  0.5932054690969322
  0.7818322676704577  0.8332899838923205  0.9765160629489138
  0.4546688165226875  0.7322905618702955  0.7613065574441469
  0.8140930904914996  0.2720248257877420  0.4265513954363381
  0.8294185195228382  0.6695013523387563  0.5410753548921021
  0.1811861728753002  0.0378849361174290  0.4757002851244707
  0.7690899914460996  0.0612892009015667  0.4080970542845901
  0.6602473065474332  0.3379171472328597  0.4105745908127836
  0.0921769921908132  0.9547733898802260  0.9203423237351913
  0.4755778668591364  0.4750082450087306  0.9294394978985602
  0.9061614470891978  0.3697301028832634  0.9400789510924965
  0.8935868722092415  0.7160474205437133  0.9222947517327893
  0.7530087119109328  0.0838727297851698  0.0733251433770794
  0.3118507895027340  0.7390818027330047  0.3296388376587277
  0.4554405930801153  0.1508814808593181  0.4715553704146861
  0.8510919142583685  0.8940016928186610  0.2159306770268827
  0.2401536338680098  0.4799165485543805  0.3189506507407771
  0.4981916419728671  0.9776690030558209  0.9861456981709564
  0.7805604661168535  0.1924692244386117  0.9327567886896282
  0.9233387576330765  0.5657088721233108  0.9973711239636607
  0.4954287371075947  0.1133349733808767  0.9730634007022506
  0.8167817799469986  0.7679097116138467  0.4362650671345404
  0.2280718641732648  0.2622791427218049  0.5236905278698228
  0.8301591871889016  0.1111737680923017  0.5557611405240426
  0.6309394394979501  0.1271810047499425  0.0676832924384960
  0.4037415706027986  0.8392487168465427  0.8862727259200183
  0.4160884029162832  0.9529155626410085  0.2069971696076706
  0.4585507390007003  0.2005719492718101  0.2609755421478472
  0.5244890601972977  0.2945113782766359  0.9787656711066769
  0.0861941113578209  0.7211486416852975  0.6313427402619326
  0.9410267636290431  0.9601863369775960  0.3353716860860648
  0.8181252487418004  0.1813558649764020  0.6871386073105862
  0.9058612940656940  0.2900037476961247  0.6533349745905234
  0.1713368377438536  0.2937300991738938  0.7855486122778820
  0.8516940783449624  0.6458608776363165  0.3662513749955426
  0.5935891277281423  0.9108241708883447  0.4253439351392755
  0.3527727045961699  0.9477368347052405  0.9951345751698492
  0.2939704498661317  0.0155341001486248  0.4686707374130690
  0.0350580947828107  0.9644135362976443  0.1452936922368490
  0.9259537094604102  0.1880992878631788  0.4940506026027918
  0.2931930991899441  0.1915311400664720  0.2910169632261196
  0.0052067018000708  0.8547897315567718  0.7274439983257660
  0.5452516439274773  0.6291369818384133  0.2924177392704565
  0.2467205297223484  0.5191639187421057  0.4191393570043238
  0.1590515994426647  0.9831196418133763  0.1459311192604544
  0.8471515431636457  0.9311101409211391  0.3429433832054133
  0.3453660013921114  0.9318166206588092  0.5899908482647350
  0.1281060695732647  0.2238250227204441  0.2175272771719357
  0.3238338442085852  0.7910535057913659  0.8235069807741154
  0.2182278509980627  0.8224970035416858  0.0168154971495226
  0.8966693067965634  0.1602928893319147  0.3031058731015617
  0.3350288512389146  0.9885202727626295  0.4659469044659605
  0.1699496652036330  0.2392734274289926  0.9638243784881564
  0.3293676435093523  0.4968915451307013  0.8340711037345268
  0.3984358323895753  0.7560515437116375  0.6102132733436678
  0.8028395286707697  0.3664098392288567  0.5470322828935829
  0.3292624519253281  0.5812502584414573  0.2507199068456568
  0.8105334051646484  0.0759997648185656  0.5848338859355530
  0.2554989970097701  0.0247614648232770  0.7493039402357908
  0.8603558342029232  0.6327219895904875  0.5348851632922349
  0.1162713129698467  0.2184963377183262  0.3715991579902684
  0.1267081867619985  0.8063764397409737  0.9810550943984385
  0.9420449693224993  0.5950846372479728  0.7680882957615415
  0.0795935319001195  0.5281893194905865  0.2909261316337576
  0.9431529979582561  0.4997512273150127  0.4302161396301002
  0.0901292268548557  0.2468250577208059  0.8664314643905651
  0.3461206574419198  0.9604896752118196  0.0432181865882454
  0.6610213658392103  0.7229755192936869  0.6204776148884925
  0.4531867379747257  0.7173951893729867  0.4196113521461651
  0.0278626141825422  0.0964603507573663  0.2588704098396535
  0.9156190809323667  0.9105021460845645  0.4434970084437680
  0.7320079805925965  0.1086983417662102  0.7191232723622142
  0.1305035245952757  0.7790683010682787  0.3777342985315267
  0.0468318877802213  0.3459639981613469  0.3928496894593115
  0.2655778000301616  0.2693380474586748  0.8302371186778481
  0.5534751678772273  0.2389099417990086  0.1061427675753796
  0.7923900202094291  0.9924561314754990  0.5926181162401857
  0.1231161450029178  0.8708321515211560  0.6944107088183070
  0.6785476693042976  0.4652504050552126  0.2294009995198269
  0.1713011633837909  0.3423612328595093  0.7898266157089121
  0.5636806361105797  0.5411096489941860  0.0813505803993310
  0.0269211372291931  0.2876531418151186  0.8091744880978554
  0.5849397941919890  0.5779345602557493  0.7895595357900500
  0.2689152638224556  0.0884813647247796  0.6304437676230908
  0.8462642496307768  0.9601229512842704  0.9854329541855371
  0.9298594148451315  0.7553432590212262  0.4205919723531266
  0.2527970889297835  0.3985339899665930  0.1872505088365978
  0.0249563466324886  0.6332663951893610  0.1394499852047486
  0.2207814742473273  0.9965068701216656  0.8099751438991435
  0.2242760485583796  0.4713984456998866  0.2012541285060299
  0.5540390563483374  0.7273174923733413  0.7699370451502072
  0.9890721636066947  0.5193081026140257  0.4959925194050141
  0.3047944594778626  0.1244576628561534  0.1913100333556667
  0.7120694639624960  0.2721730177164846  0.8002694883145863
  0.2003726612544361  0.3148920286980788  0.3870575695691620
  0.5652382041526026  0.5994492253237386  0.7075715217312578
  0.9477364100104779  0.9948945164552605  0.6384300995479002
  0.8795637165807276  0.2628013845627525  0.9107947607760311
  0.6237532325059756  0.0934014004632478  0.3221488942811896
  0.4697322619723155  0.6057352917662743  0.1397110530383771
  0.0731469573807245  0.9228652229727204  0.4219499338567037
  0.3978807032479449  0.6655121413463289  0.4538108800152869
  0.6830693413553991  0.6475619394212704  0.5971679774061580
  0.2719578036455111  0.1292272239315297  0.4592184653412785
  0.7182619382967124  0.1771212733131415  0.1091939406466571
  0.9886568121288219  0.6374720943370499  0.9888437839980790
  0.2951816262423674  0.2842126364560364  0.9008449057029495
  0.7730544639686026  0.0010894889881920  0.2364980471550674
  0.4192951668953714  0.1830976311000136  0.4449628424170584
  0.4788095816555303  0.7890800554030167  0.4261281340185109
  0.4794502867918349  0.8762578394614057  0.3728821608682374
  0.9567881418342430  0.3408987433574747  0.2606781761837234
  0.1940675233627153  0.6547754861385906  0.1619901155922933
  0.9063116828614857  0.9385394325778861  0.7464533889888764
  0.5752769796916143  0.7664384627823325  0.2740822861088281
  0.9797541481667473  0.7018600142157440  0.8327433486459431
  0.8737693404996513  0.8931407303610764  0.9488965699283501
  0.1574002667600751  0.7888156829132665  0.8073779761649958
  0.8463831641643191  0.6000165644397953  0.3480017632628151
  0.8813190862084554  0.1014019862060286  0.4387623785126197
  0.9572011574909212  0.0053118481773282  0.7951745314207512
  0.3322365893481741  0.3534895097252572  0.6701234239923496
  0.5318006052310997  0.2976213118498395  0.2241003576437553
  0.2589392634780484  0.9105522600665573  0.3264930173780800
  0.3013769672662316  0.8194696200129724  0.7563102889957828
  0.7245715752985752  0.4763940771061066  0.5933915915766642
  0.3180751424875718  0.7811774414332949  0.6168265671008260
  0.6679494645891837  0.5444892106548278  0.2237510462014748
  0.9934975892072103  0.1438914695759769  0.7631353461789678
  0.5511219341973773  0.3177024728333454  0.9441359539864121
  0.8348129393111875  0.7047789944062908  0.8048070333324417
  0.8901824128181393  0.5666903948066428  0.1620485774807145
  0.1492888489559536  0.7119925411236109  0.8268415247899162
  0.9110646542976959  0.0729588507801484  0.5098057165602424
  0.4626105554974185  0.8436821585607034  0.7902921873424684
  0.7889919312397666  0.5950991830435937  0.9526433332981492
  0.1075093357837560  0.4374513988671609  0.4070838387545952
  0.4178564868434679  0.3920884240972593  0.1492736661181889
  0.9697015169611042  0.4964122240042041  0.7906156454910725
  0.8143254516135151  0.6750806205225497  0.5860900268697843
  0.4883816176503883  0.6523790928534863  0.3333160307177199
  0.9174653352393018  0.8373238940085170  0.2490273389559560
  0.5446090807515861  0.1843615492570861  0.0349292331016244
  0.6990272470620156  0.5131437112209898  0.6966624404498833
  0.8452205091647164  0.2074938634043025  0.2523702176064738
  0.1894962814697857  0.0369712617403582  0.2882647819036043
  0.7265512368478280  0.5392028756835731  0.3810849544048856
  0.4328014159108936  0.3772502261323725  0.0584715634987577
  0.4498256505362592  0.7057437416464980  0.2746918558103458
  0.3743401379884188  0.3805269585736073  0.9240873883259398
  0.8486838949541365  0.0387507991544232  0.4663618312490707
  0.4778645827217862  0.2052429413471174  0.1089626213539812
  0.8587306866067931  0.0242565044094487  0.0967217636554894
  0.7872155923081329  0.3144981243057199  0.0931026343335784
  0.8096543931796514  0.5374197416357369  0.3904378479022156
  0.8667694152479447  0.3888699544687756  0.8511384714217239
  0.9888403864399778  0.8970440999246031  0.8314457468855079
  0.6536206349052517  0.6919528940531542  0.7754394966688061
  0.3048998103224227  0.7477790736904919  0.1239140270165373
  0.0550976522692159  0.7102422147461895  0.1458338508880959
  0.9395531789763344  0.2580361500652707  0.2646361455676734
  0.8222867265473280  0.3174280403864048  0.0200593456080025
  0.2354168273762030  0.3704482882703291  0.5826808958362930
  0.6884557450301033  0.4461507136681936  0.3960906679102157
  0.5204049830122630  0.4729475729335019  0.4191655819059175
  0.5459550446281183  0.2566875583898947  0.0021201343188916
  0.6500430062246785  0.5418922021812161  0.7503897254833538
  0.3776020061129609  0.6644573057295940  0.8917277708857361
  0.7194042610345532  0.0201220079930605  0.1457656873786904
  0.2423849536075562  0.6484457292223473  0.5166014698048047
  0.1675641679935328  0.1514433785737282  0.7798910409972246
  0.8220338208161695  0.3797828137191746  0.0665398615127588
  0.6479542512082693  0.3494716052929280  0.3153503008904021
  0.5458257250728910  0.0487589502195343  0.4096585242097450
  0.9702865339966562  0.7131210612816656  0.2619893681765635
  0.9927340941976542  0.5772680549126135  0.5527046123172422
  0.1210768934697803  0.7762082472760500  0.5326321044895254
  0.9852225179306434  0.3324985463864618  0.9757192294004896
  0.2539188936019039  0.6343834485888241  0.9334731425805300
  0.4194884030123776  0.4116635081842210  0.9780620580586545
  0.9329049009881027  0.8099955823345961  0.8308239937529867
  0.0105412242814702  0.1207518825309502  0.1833577300987148
  0.2785785030175930  0.1868768039888875  0.4063852955003020
  0.8444203842318816  0.3978907632051353  0.4839564043972541
  0.4873129263670221  0.3277356742535973  0.8180811866601752
  0.4696310784451139  0.7375204655249630  0.8885524343190843
  0.4671809612725341  0.8637827493296004  0.0592193978889411
  0.3229396759292459  0.6917333268608635  0.3395586986641970
  0.8476322976349668  0.9252802497405361  0.7999934898057084
  0.7838272713180114  0.5301518339887973  0.5748478256339553
  0.9584249154495005  0.0074497234563440  0.9420447569751179
  0.4870383612029681  0.9175388074332406  0.8108736918432227
  0.3933781424611628  0.8064729516257864  0.6724915219888923
  0.3889159011334100  0.0520304370168649  0.9926076413320748
  0.2988535371602491  0.5456805856377549  0.7654402177427210
  0.2850823847865233  0.3681206689933516  0.2792582004417935
  0.0731577472820382  0.5044105004692131  0.3760427392918873
  0.0828065136759671  0.3634609711443886  0.9138550050620046
  0.8376893438517783  0.4283633821846118  0.3509279367209041
  0.8135290427598536  0.5273181112718529  0.1650405653553031
  0.5231000959760471  0.2896215489531613  0.5570582114160243
  0.5374516999166264  0.9650691588374869  0.7753802517494164
  0.9240303730540539  0.1661848390347099  0.9464634936331218
  0.4001606239943922  0.1813053262996465  0.1256747053287982
  0.6671701496997189  0.7575621298955423  0.6939079233061733
  0.1239395883325643  0.0391764196189398  0.7782827750179101
  0.2357540084743253  0.7282548468013578  0.1478181044494701
  0.9506097886008849  0.3367467680972612  0.5434699432244651
  0.0824709318190604  0.4591338979966656  0.6132167677919820
  0.3853594275607014  0.9669167934024007  0.5233166903049992
  0.4355663380762885  0.6051968318940778  0.5690478754341195
  0.3417500440092089  0.9079430416185194  0.8384903181741384
  0.5979586528805237  0.9173372897683626  0.1411654733399213
  0.0113888760420699  0.1600003409990047  0.4328213500213156
  0.6180911488434651  0.5590034726895026  0.1314736866937069
  0.7374345179223715  0.6640242232453807  0.4058641419396838
  0.4681533530184692  0.6546180305553377  0.6255538852127709
  0.6774120885958138  0.5551023327734799  0.4561889583387519
  0.8927622211538636  0.2019612452858440  0.8648993780343011
  0.9073748000260921  0.7285668381913704  0.8196792068783407
  0.7339631160193064  0.2914245109377288  0.4695778323392464
  0.1191169802269906  0.3692199913864740  0.0382565174913261
  0.7515139986937822  0.3221475405666336  0.5485642099893109
  0.4779748971863848  0.2396993697325090  0.2372195504699664
  0.1358176903451954  0.3947705042405146  0.2898547594647021
  0.1723439350149241  0.4222105637238581  0.0060180176887460
  0.9880731753512486  0.1883520608772242  0.1607576646627910
  0.0457022295729197  0.0400481454344152  0.8370345707014609
  0.0712545175183511  0.1363585125820090  0.3815912436488111
  0.7032629402773167  0.6604918776438750  0.3291705851394822
  0.0166487264838779  0.3250001091136706  0.8734903160405895
  0.8859474628186728  0.4552889770498488  0.6546181367290284
  0.8722778655800658  0.0345296318271758  0.3024467468299271
  0.5529428660790896  0.3122492859072141  0.8659138145617385
  0.5181800602375790  0.6862621965810102  0.9351266916389122
  0.9171882219066720  0.8801422570211490  0.1091938676522447
  0.1465621891343313  0.1059262528766955  0.2855047437279798
  0.3924436812662170  0.6292880139133811  0.6337554312085538
  0.7424225579097091  0.7330657359858245  0.1117945258464730
  0.8023424765379319  0.2931447370738472  0.6778263252499346
  0.4055288454245706  0.3954166242350430  0.5735011716284338
  0.6663406146545705  0.3677538388921116  0.5307764538109665
  0.0132969640815867  0.5369271487979069  0.4165394022107961
  0.2400678986127996  0.5290619610541438  0.8208653262635801
  0.6189193567174801  0.2900206027695174  0.1062315685959077
  0.3687112336042406  0.0954434390557651  0.7461686842373642
  0.7855440998960288  0.1752053823368428  0.9834337035903569
  0.5969514361640512  0.8796292257478664  0.5932778264671189
  0.7129307449411526  0.0369689159653802  0.9542538820118129
  0.0559312650476713  0.6856169790628525  0.8038675554306123
  0.6352871990437458  0.9004584334689369  0.4036199751835671
  0.9633452166221953  0.5624670177394586  0.1322770897392409
  0.9291132261471534  0.8425858621177647  0.4886342048604752
  0.9457169864140718  0.0862355589123134  0.7999834033050954
  0.5349071943330475  0.8500243377987542  0.0232615690028509
  0.1100887990549857  0.2540398785224141  0.1204916242717131
  0.1480899621844121  0.1899153755702544  0.4938098537592139
  0.6733603943864312  0.9311660944561183  0.8781928549737349
  0.0033075423043531  0.0928608901116505  0.3392822754605566
  0.1121646606038348  0.7348784924933556  0.2665547307013726
  0.3768587902783214  0.5763371239928822  0.6998262040842530
  0.4690218007212454  0.6819984735113741  0.0255059116091426
  0.6952683268046358  0.4946157120713445  0.3247216686099075
  0.8183974249978144  0.3270983135885486  0.2679994626536438
  0.8562627853410273  0.3529958020636751  0.4207053393113318
  0.2331697143001704  0.8856040440162239  0.9692291502113455
  0.1965979742039927  0.9934192330235011  0.8856595197695954
  0.3933087314108921  0.9680021008683557  0.8176892995679388
  0.6098586001300087  0.1129298278490188  0.8121647108348368
  0.9124013810631404  0.7428510218383789  0.5802822198168394
  0.3471828721301556  0.5148521520774446  0.1315474641370062
  0.2798032961696563  0.8120359752349082  0.1598564491047340
  0.0609028082978222  0.4779142189221710  0.9751241258643246
  0.8717534206350370  0.8879048278928866  0.0283811664877393
  0.2865885116754202  0.8936954878947895  0.4531851984562111
  0.5061564206384719  0.4029394283698414  0.4539410489600395
  0.6035576162839352  0.6237549312850260  0.6431189420749501
  0.9245159053414548  0.5933493344477803  0.3210354507872089
  0.3304080660475796  0.4714946921504724  0.6443358518304816
  0.9797521308666248  0.9015574373409875  0.0545616708891110
  0.7758420542169541  0.5109753790234290  0.7332984687157573
  0.0747091705217141  0.8210790008160389  0.5815456336488811
  0.2363207370916606  0.6693531338665910  0.8646889417794072
  0.6751212850460735  0.2335966917971708  0.0782538588147592
  0.3296691237039893  0.1180918334285075  0.5874828664307441
  0.7445202846029790  0.2244716735834257  0.9364844407951080
  0.6959680645129487  0.1078735712654303  0.6579512474000052
  0.5282248876769584  0.2445460129073065  0.4185689388512379
  0.7930352908144321  0.0948897631665257  0.9791305900814848
  0.1350064835333978  0.4899607920384613  0.9464352514314055
  0.7782582488953670  0.5450363236828132  0.8079747253933661
  0.2807623896608359  0.6056764184548016  0.7145554678425199
  0.6124686148807268  0.5845257698852495  0.2730635230034960
  0.6503641285520879  0.5097186541338989  0.5796913632283011
  0.9036075451339951  0.9075180283347962  0.5210901218381100
  0.8647421878852747  0.0819017412992728  0.0096967112806008
  0.5118288562358219  0.6581876431222660  0.4756636552011920
  0.9417773054483384  0.4149612364727845  0.8478263831414984
  0.5540676170711257  0.1618208747293768  0.4154962457000342
  0.9715988408132482  0.6971946360743305  0.9659841637036188
  0.4600605819687704  0.7496025537407800  0.8079251422798266
  0.0036613205069791  0.5329684096546997  0.2707473970285327
  0.0069037405975268  0.4101857562141537  0.8850513568694789
  0.3930228322053598  0.7306777304222825  0.3192862392335395
  0.0352220535046167  0.9349326061323806  0.1851531537512452
  0.5752143903009685  0.9985450864613191  0.7110642114593010
  0.7184816647495390  0.8126271503445187  0.7151739826774759
  0.2204853292806462  0.5988022559396849  0.4108417503619137
  0.3996717472357355  0.8966960625666105  0.7869273307379834
  0.9915573711840385  0.5111589533345851  0.0862146028801188
  0.1726737768566794  0.9310016314092817  0.6811202578290568
  0.1794071132428433  0.6031493253564914  0.2627245678975579
  0.9863212032816220  0.0673962452299335  0.6117724870778961
  0.2115245617663564  0.6801964405466000  0.3945387536172204
  0.1367604198163016  0.7119804373228753  0.4140952042214708
  0.4582167696567205  0.2422113330798999  0.5630903634773399
  0.6570422944342411  0.9591791733479689  0.5855759869464404
  0.3892745027736235  0.5754904418966919  0.0951710836316481
  0.7220737861388878  0.4605505204643338  0.1173350671765971
  0.7201406817529905  0.2306636170491887  0.5057127738720374
  0.3102404796798742  0.5635417609231926  0.0576775568248474
  0.4384470161079285  0.6302415598292236  0.3968599759293355
  0.5647300568690905  0.5718993291574045  0.3704240806688581
  0.3291799549676832  0.0210496226439225  0.7324521582274842
  0.8254229381089707  0.2062432169585628  0.9220613819607125
  0.7544482148089388  0.3676833130180889  0.6128012039667278
  0.0646703684392798  0.4323210595909125  0.2721568262286584
  0.2979932117448086  0.3372808748481403  0.1593425551702147
  0.4179468671976447  0.3191731642529836  0.1072309550026938
  0.3838280578768493  0.4535667867004531  0.3461330266768821
  0.2345204825362051  0.5926332459911051  0.6551314334365378
  0.9019140747679237  0.3014635519109671  0.3376966244773531
  0.9716761352600507  0.4177006504089977  0.3965739440066900
  0.8666766194423052  0.0941546364399436  0.1440492436803018
  0.4155110569298818  0.8616577890846754  0.5161030905008336
  0.2775142710292346  0.5038715097285634  0.0018662247071928
  0.9161334924636279  0.3026935741172954  0.6071922602363942
  0.7895763643200199  0.1414567210451206  0.6897110896616550
  0.7042724397281385  0.7658542951363059  0.0501940999962232
  0.3849245666671692  0.2650987443378912  0.2635464849804012
  0.7670394058714838  0.1528271668275589  0.9106740412897475
  0.3557936380731756  0.7274983592553854  0.5448538641954092
  0.3416522314966858  0.8747587200360925  0.5086826112604115
  0.7755202417605551  0.5384314176472174  0.3190115944392176
  0.4882871230656985  0.7883875375056687  0.0405338502540635
  0.5153710229037137  0.7367512902229565  0.0990086122352525
  0.0080493327385064  0.8714773690393137  0.1205785008940979
  0.5289214932613969  0.8764770350457790  0.7554023977669253
  0.5555340349997149  0.8017087257783657  0.7467894818066696
  0.9895775503742495  0.0494764919286004  0.5246567615416995
  0.8746538735165630  0.8120548741518463  0.1134947913287468
  0.2672644487366080  0.6037195311621958  0.2049097152189722
  0.9259081609471159  0.9226083888150072  0.3655908419225067
  0.0790319062557918  0.9096619936703498  0.6426852756354380
  0.2659479215158121  0.0307973644840801  0.2311225262836559
  0.0039671202289140  0.8687663300219303  0.3695124202739821
  0.4400817458796408  0.9229679991052820  0.3282736828876083
  0.5826659784327548  0.8762260404410521  0.4567148366286047
  0.1216351680069966  0.5052358947404255  0.4458485964314126
  0.7778024983281970  0.8917122695268994  0.3302408690282084
  0.3457689305481767  0.5073100508743684  0.7136522482560516
  0.1483854966523720  0.0152668277899482  0.0108083805126726
  0.3775013799976353  0.7271633281744989  0.4041506312894997
  0.7515134678253289  0.2623017577179161  0.6198967386268764
  0.6605960871212605  0.9711216962474096  0.4344214937132944
  0.4519942481680466  0.4689489124826055  0.4695936522191552
  0.6881188559096304  0.7163568637651501  0.3803912420535176
  0.0545267065656046  0.3991424183009361  0.1431432503061650
  0.5829414460731794  0.1202555337988130  0.0632564069497338
  0.8943723451727648  0.9771418506816802  0.4879865453474321
  0.4767015561142660  0.7620104359263957  0.7304120307613988
  0.3907406818114086  0.6027484665873940  0.8468534074402646
  0.5591939482905516  0.5571654999304391  0.9834285010795144
  0.5940722711075032  0.0461510755322688  0.9687346993339289
  0.5172594812526873  0.8759801421734773  0.9379764996699921
  0.8182346607300284  0.1774557204387293  0.3176605873123790
  0.6333123683974181  0.7629355272931405  0.0209354344985786
  0.6075272913172807  0.6487513501909202  0.5654639294189517
  0.9398557739947233  0.8315405069044246  0.4015485264787361
  0.8413804722076702  0.4706694040529505  0.9434727931145325
  0.9662621264257739  0.5177542506511759  0.3592068567937574
  0.2739367485223521  0.2394411022299718  0.0152972697778179
  0.1854837388088351  0.1694023000131323  0.2623258591456965
  0.1083552282131221  0.9610894503903737  0.5564752647674405
  0.3165000557865894  0.1517256147869325  0.8120564136703607
  0.7249734427177337  0.6256404167706611  0.0017095257151711
  0.7210478297660133  0.8395017818382374  0.3471819165669397
  0.0733630871997800  0.4706933462201950  0.0501500777297321
  0.5249226735499645  0.1004926085455018  0.9385221262663080
  0.0547347439586748  0.9167521665591200  0.7827417515046751
  0.2870768310222010  0.4915251021098415  0.0796593662241861
  0.4323091415941356  0.5067275289205470  0.3153882048979686
  0.2797325314048295  0.8486509811100309  0.5976403441559167
  0.2493586274142466  0.6783138748374581  0.2140925980941285
  0.4532025047677891  0.9719143890218980  0.8966138841300375
  0.0024656162503411  0.0509875957092472  0.7550586604434046
  0.5370771722228135  0.0694826776968592  0.2728833462504412
  0.3242702711640546  0.0012528389739259  0.8879483060192129
  0.7270883164620457  0.8861518471731986  0.7473309145422043
  0.7152836070130852  0.7022219072403681  0.9756481992014362
  0.3387993444285768  0.9028914035904747  0.9802432903596309
  0.3021892756300699  0.3509584085701243  0.9395777050988775
  0.1425672182191854  0.5978154245718197  0.1941278300190117
  0.2764181073034093  0.7083926690548440  0.9787953997400625
  0.9514128863970581  0.2538433510209973  0.5550784436930807
  0.7024545337966103  0.0784484287387544  0.3260736047565393
  0.2432837138990167  0.9671633287121196  0.2763871576725812
  0.1811840095863529  0.4554158015233455  0.4236674525637102
  0.6400730843240616  0.1116900774782835  0.4760475261797833
  0.1271958823383466  0.4710781196751569  0.3058429777600030
  0.2758618898814497  0.6818669243086429  0.7924483095656031
  0.8103125108012245  0.7924873283969215  0.1602476858831150
  0.7285718283548315  0.3175780638113113  0.1464564666818538
  0.3676006833433306  0.8505478271805669  0.5806786723777742
  0.7494079904526404  0.9938202510531345  0.8934359993948097
  0.5281414882429428  0.5543741936029145  0.9007958534578633
  0.2589480758943734  0.7752489148940663  0.4821359502971500
  0.2875325550459484  0.1486642158620731  0.7372168618565128
  0.0827215282724472  0.6996470359812595  0.7282821865267034
  0.3802963227740652  0.6543357677987107  0.1297308588331886
  0.5165540101650784  0.5793166231871066  0.4661842557514372
  0.1226032464467485  0.8809459918594664  0.2851397451229039
  0.2514428700488024  0.5082999612792628  0.5679484999541515
  0.0203097479626111  0.8149687049183956  0.1709088250533693
  0.7053661880025012  0.7803667522182393  0.5628998878762907
  0.3453363789324165  0.6036583220295287  0.3469627209825664
  0.5243051142782243  0.3550807879140656  0.5152567800125605
  0.0336789881251526  0.7359856186527418  0.8831876369904297
  0.3365204057887681  0.3576841933525398  0.0765611980230791
  0.9408620882348252  0.1779698532640524  0.2409048127294490
  0.5824856424191641  0.7966738101066004  0.9680778027097983
  0.8579952745384173  0.7371729590354237  0.1807083647238950
  0.3891284608621169  0.2616488691506079  0.3446177157637428
  0.5639338072759650  0.4572805300524560  0.1475995060921067
  0.8050659378771230  0.5214197380607726  0.2459896034924031
  0.2679708223005875  0.1548109824224591  0.6676406584098910
  0.7560212842097986  0.9137402313023980  0.6814122885652248
  0.6812127882004695  0.3819460230361608  0.6442126372624675
  0.5218389117915092  0.2520919363632467  0.6277578386835492
  0.9267939680483155  0.0079291250425911  0.8702881706170452
  0.3540618920916201  0.4265759746457266  0.1110912114119557
  0.6121915015480968  0.4947742293915040  0.2002402095753343
  0.8194396790322055  0.7412892599355745  0.3955509074103087
  0.5133239941477353  0.9055362963985754  0.1054535012473082
  0.1943883271690529  0.2339786781927528  0.3749288445597213
  0.6930568880886658  0.5328980695846356  0.1529020458228988
  0.1131906700635546  0.7561580359233723  0.6109823424719838
  0.6346150134081597  0.3132175634226360  0.6677396653764340
  0.7874034666537607  0.0573290085059685  0.7134702665502557
  0.0033525205488011  0.7088597802069148  0.0321487100395577
  0.4419669128442039  0.5718117889494529  0.6541267648886412
  0.5828960037335758  0.2798983216227994  0.4607013401919203
  0.5409716762831698  0.8593438927572160  0.3238454171408676
  0.3935758909600223  0.6037260077573262  0.9429994708015578
  0.7779755083571320  0.7537713044441182  0.0389658771903555
  0.9028988357488210  0.1005984902585153  0.2473157925190493
  0.6875763083503437  0.6608896573759431  0.8402608706396310
  0.7460240225838363  0.8877711021294967  0.0805383450299050
  0.4909023403272589  0.4697825883016896  0.1671964486876336
  0.6049851215548963  0.9470696392331156  0.2076744117652745
  0.3302674655377194  0.7485830739630360  0.4746642422509832
  0.7372214804120566  0.8152734764974432  0.9725485644762268
  0.1546322124708056  0.8660019918118339  0.1933385878894699
  0.1652729397490299  0.7539652837769591  0.8884642039821434
  0.8653001306297076  0.9622024691895917  0.0636656136252595
  0.6898158830943389  0.8607073222058623  0.8503329847175107
  0.7463871896927483  0.4925887501429012  0.1993694658664974
  0.2051997684701516  0.4664388071748012  0.3502012308951626
  0.5858215136060981  0.9587378093158837  0.6367606244359185
  0.9063252730938904  0.4330027212283902  0.1930223495518308
  0.8608183267994503  0.5117716286165546  0.4462923493715377
  0.7346309485335752  0.5420021981247427  0.9410805936902092
  0.8008219631139502  0.2884630612709170  0.9497334309581542
  0.5063051699790905  0.9691944314144988  0.7000276686622856
  0.3548670337313387  0.4560032605537827  0.8975175284112684
  0.6201791075571941  0.5477428503183436  0.6765940203092570
  0.0462780227690953  0.9790324855913124  0.5094810905010410
  0.3819894746190645  0.5293527177060239  0.3754618895736938
  0.9799005616861713  0.8018090068291969  0.5357120970819621
  0.8442249184673714  0.1841583328131575  0.7301403322869929
  0.1148517309105512  0.1020978353029212  0.8242036925322447
  0.6117237533538818  0.8295291525085087  0.3189302123053246
  0.0564614964588412  0.9675277168184744  0.2807565766512721
  0.8877633514500783  0.5855649448826116  0.8832804327960689
  0.9959652781255948  0.6323259617243153  0.8129913791903373
  0.3814230379793785  0.7245982779817768  0.0907519421864486
  0.3424189648038071  0.4868602017500360  0.0293281860395338
  0.1710103138299315  0.5963417868322657  0.7346140138299145
  0.7268686961829097  0.4772733545253305  0.4542097214842616
  0.5597831061000393  0.6960667529584198  0.3529082353123011
  0.3601121467671937  0.8433778116764183  0.2427362823499594
  0.9431221014142732  0.4841541528961136  0.1481505873617806
  0.9202988986957102  0.7019371494020105  0.2022962498233078
  0.3356270072686861  0.6165302363301861  0.7680966834831039
  0.0855753310886382  0.7600443646095476  0.9361221761625664
  0.0615165453166984  0.8907886645918238  0.8582807755926095
  0.4102534950287966  0.3203546119958338  0.1846022317421073
  0.1990999837678840  0.8784578114187839  0.5551695938065149
  0.4109834126086805  0.7582839517315132  0.2317442794161772
  0.5627381322585661  0.7195762624134270  0.2034511806869149
  0.5775572720459790  0.6467628762253422  0.4068875236005596
  0.3250697590547454  0.2933071828205612  0.2224902468965655
  0.6528853290105664  0.4436186834932676  0.8998537743006124
  0.8464894971155179  0.4864033894459593  0.7142250553171773
  0.6611170814213430  0.7391949308004058  0.4762647044640340
  0.6486139083483572  0.3696449250399291  0.8635644031347524
  0.1847796214357821  0.0845351673487819  0.1170630767245417
  0.6223692584481860  0.4401363457000641  0.3463200781764072
  0.2692513831836714  0.7571026632491991  0.3406419888300294
  0.7026238808332174  0.1978767964928920  0.2430847974895599
  0.8165947549908962  0.9726022883637022  0.4722423672801197
  0.6583483900899295  0.1056013481115561  0.9531660263772821
  0.9656604401207880  0.1203068687782485  0.2878568094972325
  0.8850259813574106  0.4328879740122064  0.0009000178897945
  0.7051360565279897  0.2684929048809991  0.2827862460088272
  0.0696260055433983  0.3197907235247237  0.4623532966449426
  0.3595368180809148  0.4439148815467940  0.2687578082392027
  0.6556837489753654  0.0946219665752515  0.1866244291261820
  0.3546053421272776  0.3855145473227596  0.5129829111664810
  0.1287534636520810  0.9404760406955753  0.7492536139064168
  0.3687660723154679  0.9563438049388192  0.7314241845544872
  0.2096539140539914  0.7785395030019328  0.3805093602843800
  0.8921854856661834  0.4528611563523083  0.8033119485073738
  0.9486776397782035  0.9092043850635932  0.6026872043678816
  0.3612797122999896  0.0973107356610185  0.3425826315479638
  0.1275475296018218  0.0208881208476770  0.7023251080676923
  0.9134584463273790  0.8350794883615964  0.5655336855337172
  0.9002913160798337  0.3403947368478985  0.9011314684940483
  0.0788296254675121  0.9848355148281777  0.1394996877636901
  0.1188889589545810  0.9503802410816719  0.4807085511998795
  0.3155948719868438  0.4257954918456644  0.9585438299830428
  0.4429854105153093  0.6083370780559657  0.0491525493625326
  0.4477234645479814  0.2996073703639549  0.0366269902304563
  0.0112435856412174  0.9203858549483631  0.9860275268532487
  0.0455965170742258  0.3033792968984410  0.6494375507536738
  0.0668822517575792  0.7577877489882007  0.0116930114084554
  0.8776748866238365  0.4309048087311616  0.0822818298401343
  0.6559416979568307  0.2693701384566777  0.4856491315474909
  0.1338210542771477  0.3139623718626355  0.8800049213522767
  0.4038901341394586  0.7285925853113562  0.6841014027154867
  0.5349647404733867  0.7629981697706316  0.9189291519124697
  0.4801990236583888  0.3359936250225447  0.6653805921435976
  0.4715724643788829  0.7390633815976746  0.9670521648579957
  0.9189130135114889  0.1245477645043921  0.8791887111053065
  0.0856539327990070  0.8581389275418840  0.3757455325882995
  0.1822010075540778  0.0949505476044301  0.9108233214988194
  0.2304426695989195  0.8819839458593857  0.1960990905749910
  0.1667930019348264  0.2966458941537205  0.0954118523827929
  0.1046222077004082  0.2057202717169146  0.9943735221551783
  0.5161926480089076  0.4782373585497032  0.0909339968866570
  0.9952480748451676  0.5414921397147987  0.9292565606295481
  0.5423705146576520  0.6140248557516165  0.8498706513815196
  0.2933298774469404  0.2802268230217101  0.0866789800596552
  0.8592052299172104  0.8052005661168834  0.6197716129324303
  0.0098537902790446  0.5047203152985672  0.8601398238292696
  0.7980673928833948  0.0223629762667460  0.1681852708121988
  0.9612344836518191  0.7756855541969171  0.3485960970397227
  0.8032841310004202  0.5912705597582936  0.1214097745334308
  0.8726352462228367  0.3356108954111280  0.5276560090423872
  0.1200873414010918  0.6037129483933747  0.3326565062947454
  0.3306073009781084  0.5924005663480176  0.9046268125643578
  0.8430060444985626  0.4789873164136998  0.5185701423770741
  0.3235022637726453  0.0748796522896402  0.8688213279936935
  0.9260718807781179  0.5150978379976383  0.8933295071830749
  0.6724243140427028  0.8380180045112250  0.7787580615441621
  0.1222848448201622  0.5644854326858035  0.5494599974174328
  0.1041222357910772  0.3387743670678484  0.1225701733421071
  0.2619101095164838  0.2018081693673310  0.3285549104507513
  0.7209629439003284  0.1735063643954343  0.3788122269259807
  0.1739927328006492  0.6604632107473960  0.4629205295873085
  0.6482891230286197  0.0927465344109510  0.0978406286435495
  0.4420119835758902  0.3048073064944328  0.3071524975172151
  0.8474481924553575  0.5360487207682084  0.0935239647174066
  0.5236279915660225  0.1991163079728233  0.3497409679461395
  0.0353114782955774  0.4498272962284645  0.4276034705371156
  0.9894368702341214  0.7051718370617429  0.5838628744475964
  0.2925651614399417  0.3381657794729693  0.5147739020674261
  0.8391913830535848  0.6755419982953248  0.2504820512351495
  0.7925506610034020  0.9474458126191339  0.7468588132266722
  0.3240993315220875  0.0060447286667673  0.2726243355320694
  0.0672007595578563  0.9895019547064977  0.8982728480466435
  0.4655016120073208  0.1637512451427396  0.5822786037223716
  0.5654463576731470  0.7854637264121971  0.8256861957749692
  0.9290702258024349  0.5241098077742502  0.9712314798435550
  0.0674422250738461  0.3307099178501339  0.9899404520489350
  0.8960577463383458  0.6495501479526217  0.3865853089930938
  0.3506200330179820  0.6812615750113290  0.7267051356124437
  0.8834782343817739  0.1494061708841360  0.7966463642075641
  0.0969169639857729  0.0253475966825809  0.2404671913199596
  0.3187394978134715  0.7387152911528366  0.2809959983237166
  0.2585445096961641  0.0868554473693924  0.7045718495358075
  0.0077912759243866  0.2340838432333543  0.6405061137214296
  0.4893413216402893  0.8239437793375022  0.6907490967484197
  0.4494244732460899  0.2938274604482315  0.7278913080845283
  0.2937976256411553  0.7211248056917439  0.8605718445765764
  0.0390056359195809  0.7608904627504393  0.0866331793838455
  0.9400546373173347  0.7658673545002573  0.9964396621754761
  0.7786441902609262  0.2439056262920739  0.2812890907967913
  0.1521331094116963  0.2549840280666330  0.3113867308442696
  0.1920276878742792  0.7427531296955877  0.6749579368229888
  0.4501434814792583  0.8446616639439127  0.9031540773011744
  0.7928811266155897  0.6299457068401917  0.2039962365996436
  0.5871251141800560  0.6816579744854185  0.9774392431892267
  0.1743772540930958  0.5090930256616685  0.5396351618651066
  0.7434230325968245  0.7387720940773412  0.6996521854052569
  0.5169284847720462  0.0357936362503720  0.3400803830932687
  0.6788329580111085  0.2020925157826372  0.5738520756760744
  0.8340798630640063  0.2714552039373362  0.4716416365383497
  0.1691971591710605  0.1733142298304686  0.9184747285164330
  0.1332527197827412  0.0462093516167313  0.4847853554871038
  0.7984424514456612  0.4432950926275500  0.1069617781534410
  0.7855738285294143  0.5997998108503071  0.5355149325384012
  0.1037950283840215  0.1741264851074616  0.2746437060416302
  0.7615402457372955  0.7089320314034108  0.3442079649480524
  0.9787082311400283  0.3236774238188163  0.3342348312932930
  0.6452523962151281  0.3605741881255354  0.0506292196881263
  0.1958136824227781  0.9810356646130473  0.5495917058806999
  0.2508611443976610  0.1057796668250242  0.1434677834633871
  0.2559465987461818  0.9262433512885383  0.7983390382709555
  0.3657691340925522  0.8658207002350272  0.9025916752617337
  0.4098508843938033  0.6559858131253010  0.3350211005594962
  0.6415513406191594  0.9853300718792849  0.5072134859027105
  0.1933413085902931  0.4737836907474713  0.7880993821092099
  0.2867952583945633  0.7664140959203255  0.4100452087911389
  0.1423872803569346  0.2675785105135885  0.8133139879494161
  0.0638332817903830  0.0671458743956393  0.5054850313055658
  0.0655123457138027  0.6349029564572372  0.2045156781095000
  0.3055015231708315  0.9234420646340914  0.9073654567413137
  0.9578861901430775  0.1072148895961254  0.4053684435214018
  0.4367010428518244  0.8382851375169326  0.2260893359343639
  0.2699256922930707  0.4403687068220796  0.3140170778567495
  0.3110059123592849  0.2317540739391409  0.2707284450247494
  0.7505212746860850  0.9047660062728168  0.8837191424858876
  0.9978183275487323  0.2354242595345493  0.2220984925214425
  0.7817564065684791  0.9500649052204034  0.3863027808022402
  0.8188712250923970  0.1777935651224182  0.0564663738127560
  0.6558146611359527  0.2567348056822396  0.2217293664141420
  0.4641770952163026  0.0286129303827448  0.2610645157006227
  0.7414206498777698  0.3904845908695300  0.6887624277355828
  0.8039656599207845  0.4154492903853386  0.9905632669183629
  0.1821412848530799  0.7273168553311974  0.5078771245561983
  0.2156799743998052  0.9402662414828257  0.6170004265192863
  0.5461315053019998  0.6480532050879670  0.7779260845041285
  0.7847056462608647  0.3900352638106451  0.3947943933209137
  0.2673250208271311  0.0101618913986728  0.4271004461341780
  0.5310076470223847  0.6911139626363821  0.6519261028022735
  0.3811683272954786  0.9609420813077337  0.2998181251399206
  0.7572559780585163  0.1241836418322641  0.0446161324401404
  0.6954533875474609  0.8718207878417625  0.9290057783722027
  0.7149313757943114  0.4182028519658326  0.7569700523095613
  0.8918560287040568  0.5317166218417855  0.3576753013059467
  0.5347783525594282  0.8138054128766489  0.4768403782148076
  0.4473468664672005  0.0348324856439358  0.5273340904122976
  0.0019320523954037  0.5985030053925519  0.4766559545141263
  0.2194709325683425  0.2089256952531581  0.8249671875418008
  0.8768374947255791  0.5425045589421137  0.6483715668994194
  0.6621746775540348  0.1811573201748626  0.9499056446844093
  0.5519592730087894  0.1441088203924750  0.2126674153726506
  0.2030177133230727  0.0168856066236023  0.0616218895254029
  0.7834289607174901  0.9049233556823790  0.6029880475203747
  0.9158652977210137  0.3622081481379903  0.1590712681188600
  0.2816404726260398  0.4251509909999186  0.8839919557840455
  0.2083216465835548  0.0601312042726417  0.5086478393767194
  0.9314694326903419  0.6778389599191235  0.0541118328693398
  0.2069936526041674  0.4413078131159919  0.5675984452960363
  0.5754421859542856  0.1884708559653645  0.9640323727481648
  0.6111923540321146  0.9653730279401638  0.8410362040156961
  0.0381140489880958  0.0496138541408954  0.1907607703104455
  0.4600490621233335  0.5954427080197331  0.8866692846546437
  0.9783851445993414  0.1098523037948900  0.4799864108428366
  0.7319725185799152  0.6046947365109335  0.0785723068923352
  0.8069970249628977  0.4580738067822430  0.5863454276826736
  0.7219753100407980  0.8248883535764836  0.1179813597033728
  0.2825663337520420  0.9694821621161949  0.6036554553398809
  0.5056862835362170  0.7333260207884843  0.5024968258687070
  0.5915982117676789  0.1070777463670674  0.1483558741926771
  0.3600644482366634  0.2106564458563635  0.4891410780596993
  0.2489768002792005  0.7144306606691457  0.7265141291429413
  0.5559902102616474  0.8555506253109066  0.6836895018825603
  0.6283742300446918  0.4178169371436961  0.2762735518235719
  0.6667005965527627  0.9599871551339126  0.1551628154898929
  0.3314390391273379  0.3551913678128909  0.7491531205082044
  0.7955169415731388  0.1502518841453991  0.2301906928875540
  0.9744850664202254  0.4674744784403714  0.9373792726600139
  0.7947271685751436  0.3933629596233981  0.2987892489905528
  0.9901853947532940  0.4115059729707001  0.0981036938697335
  0.2314863569781346  0.4742508549863876  0.4972495097287709
  0.8958890363438826  0.6968329553970878  0.1218821147397669
  0.1232450000482484  0.6500483679960568  0.9732951778689675
  0.0802592542122865  0.5836976681849251  0.0039557127782824
  0.3215420850956290  0.1454375575876971  0.1227410466255175
  0.7582660614646367  0.0206220396250926  0.4342274347501855
  0.3669233217403247  0.8872235644067488  0.4349959995534707
  0.8698130964381746  0.8778696091725122  0.1726661588943743
  0.8466827863193696  0.0126942359472611  0.5412609995902259
  0.8045578436804562  0.3584317092216511  0.8107046102408422
  0.8380037772366762  0.1039767446555908  0.5074420247718622
  0.5221326943935731  0.9480134171694171  0.5853900768140899
  0.6342758946401827  0.5686455302333527  0.9542767093553055
  0.1761737394825328  0.1712304384340981  0.0040311350843050
  0.2640496951872975  0.2632591789734677  0.3855676607115137
  0.4619910320124012  0.1669457062454221  0.6601936888336486
  0.7205405849588717  0.3178980182281236  0.6670640821827467
  0.8481707575071632  0.6374839327035589  0.9865314271891343
  0.9740265022502528  0.4431518908622685  0.4767946173541320
  0.6054018532907478  0.3197569072042477  0.5256270829006667
  0.7013577595720637  0.0610949959496331  0.4930786355516193
  0.8891372920941003  0.2201821901220926  0.5030251461534451
  0.9607906776248486  0.0514388338945640  0.1952427334012390
  0.8002233027591480  0.5277846915554705  0.6603623457412664
  0.3412892501917325  0.4381734330505132  0.5751704874798795
  0.2174725180909763  0.6058434827570595  0.0003634484847451
  0.4912927409878259  0.1687854839572269  0.2785730085291012
  0.4030144135388720  0.8242186099357828  0.0972859573759601
  0.8712792489325372  0.3836301235740312  0.2877411598046781
  0.2330726715469046  0.2182264840117954  0.5445134182562990
  0.5603519847346106  0.4412565843102472  0.2931976646586426
  0.6758565378539133  0.2737815756734484  0.0164654225838404
  0.4140816936193339  0.2944973898928911  0.6106029838752455
  0.6354408854609802  0.7524080342560081  0.3274893512912596
  0.2427192414726080  0.9290381613478548  0.5145495039722103
  0.1860071352886686  0.0902013320625271  0.5813684297591649
  0.9466026873415807  0.5790499148761618  0.4154998821489395
  0.1102853265564025  0.7629576645076437  0.1214744210393331
  0.5533695781418632  0.4422502373377375  0.2123527430969488
  0.2578553628134946  0.8336798536844342  0.3456599697981341
  0.2646057002618759  0.3635810801319508  0.6932406747472031
  0.8003768830026917  0.9288789008118606  0.0390562376369652
  0.1800261324028299  0.5516839115420555  0.6048212955502037
  0.6662408113853475  0.6313654083448892  0.2729863081869615
  0.7984175006283554  0.1477493437130546  0.5539625582042148
  0.3721011737431447  0.7354116436810187  0.8573116752310850
  0.0172293207216282  0.4402410064156350  0.8146560233993937
  0.5901619471672381  0.3480760317594337  0.1937114300759436
  0.0716263709623305  0.0347792461739240  0.0094812715905347
  0.6867035075262501  0.8327681402027131  0.2397688604130478
  0.1418176585065287  0.3332197046368661  0.4986002514213828
  0.4212159020463065  0.4665629242191860  0.1269250332534659
  0.8122335113863863  0.2323504781030164  0.1111502904349539
  0.0927272373426731  0.5756437036191635  0.8032608258753197
  0.7882590673399668  0.8719892324019992  0.9474960327748173
  0.4834550522299444  0.3466013322829729  0.1674661431336284
  0.4712451839774148  0.3045094627487011  0.8876727852919430
  0.1153577281768274  0.8407768216894068  0.7663335100891123
  0.6117086766898078  0.2761983543071601  0.3238194842169231
  0.6161893126094680  0.7249789106628030  0.4022594389679915
  0.1318616453593887  0.2356897468480516  0.7085199182231033
  0.2895016257695577  0.8511314639581402  0.0153413418132265
  0.3711830102097156  0.0983643237368880  0.9296954826667481
  0.4016801022248900  0.9523734397764844  0.9961123286871627
  0.8823898478787895  0.6528957871190967  0.8410556868879328
  0.6694262875394578  0.7899832749894851  0.3873252865301681
  0.4279918538975602  0.2515806038690148  0.1490821022368105
  0.3692375631322787  0.1485368074332778  0.0629823593824218
  0.3545493620488757  0.3630387980068907  0.9986860851225192
  0.2035435385260802  0.3934166304240281  0.9181154367472301
  0.9282238091404712  0.1293795831776308  0.0178651003940644
  0.6663837211729796  0.9574419594213444  0.3569760148358190
  0.6816819697395083  0.1471914938706010  0.7953037448022878
  0.4754019901405536  0.8605673321947233  0.4618741347789814
  0.2312194628632311  0.1957132951982564  0.7622468316486564
  0.1729864185605473  0.5389774158514506  0.6813050531376554
  0.5050842787101590  0.1463650776776158  0.4833968159606160
  0.3620765989352592  0.3274827950658613  0.3981703981629184
  0.1292393675473993  0.4467873311174076  0.2306180154490490
  0.4478064923740797  0.4635189245078840  0.3895760891419512
  0.8601941316720436  0.1660940870726159  0.9918678230555366
  0.2010342560643786  0.6624671860718108  0.7713732566638027
  0.7205493973751967  0.9361184600833933  0.5451272083620207
  0.9452159527678340  0.7632640817788965  0.6568589324704665
  0.5757430291067785  0.8262889438168618  0.8923062051524669
  0.3843209692357513  0.2761943993371829  0.7723800486855126
  0.4171342668561570  0.9155021836989470  0.5821425421377873
  0.2558015123978911  0.1827228910588193  0.1522641808328195
  0.7587688469767702  0.1242289249113318  0.6260510435192994
  0.4404469833755207  0.3125941911413321  0.3876641398639184
  0.8610336470441142  0.0452316511862631  0.3794972861215596
  0.6504948814521393  0.1289797994171514  0.5751014745809487
  0.5985339550233800  0.3283113214609482  0.7294240845697817
  0.9455971163173135  0.6445798920584701  0.5641902167389156
  0.7926967029149086  0.1524001229720019  0.1259412941943412
  0.1407719670989023  0.5276534608738114  0.2427250544821718
  0.6463036219263804  0.2285057164167356  0.7937083258395435
  0.0413186065451748  0.8860456203956906  0.7078315941865364
  0.1546105132227764  0.9855078066374544  0.6171726933323867
  0.8593901844863450  0.1272372768059938  0.3668888152908593
  0.4929251614817662  0.5525592074478795  0.5952412434417006
  0.0821610705387167  0.8201236499474551  0.0530248598036125
  0.8169839346540206  0.8521866180959470  0.2211740381968416
  0.7096317691117239  0.3154619690695566  0.0738294883152946
  0.7661294973425039  0.0193596112176172  0.5114617607003553
  0.2645949501756962  0.5187156534201274  0.3378507355893501
  0.5989537657962607  0.6744257942853870  0.0563641550920704
  0.6808788719433351  0.7097120895087102  0.2637194153790682
  0.0434807939403884  0.2399434099604975  0.1535703428470644
  0.6295860965499168  0.3662203191910237  0.1269201359919840
  0.4132760211111621  0.9891323640893005  0.4481614841088107
  0.2647326839959085  0.8833769977677267  0.7301071530086607
  0.7315629004813381  0.1605818277593421  0.5282183049081374
  0.9495715160798934  0.2974176441677256  0.1946960317963050
  0.6159660293380043  0.4804702974380323  0.9589137391213119
  0.5528151922160675  0.5464675981197928  0.2951042787087195
  0.0041323181967657  0.1019736452641240  0.6931279713745646
  0.7448590848498841  0.5520481403878742  0.0212916770921028
  0.2556741305125184  0.7811288669698168  0.5641381916304908
  0.8169041982123328  0.9379917886814475  0.9155305320743540
  0.1063951955249304  0.6994685049204102  0.8969706277306645
  0.4394909158345250  0.2218093948334791  0.3011143731857998
  0.4598660186806308  0.4000276945336824  0.5196024160845429
  0.1602635853932917  0.0647125525737512  0.2180141764456038
  0.5189552874399533  0.0394534599571573  0.5578677327204827
  0.1187810864848676  0.6893434632577349  0.6461545009778444
  0.2540403563040221  0.0434778177591220  0.8646911714269112
  0.9995131781727824  0.2988466358703561  0.5899881408356231
  0.5928388513430736  0.8413936908321575  0.5258636378834636
  0.5969014814425944  0.5236608523232826  0.4498244295388166
  0.0535049938224288  0.2295282221446636  0.0706734554527763
  0.0233686352161008  0.0240025535310225  0.4573170007151987
  0.9653155879735152  0.4754104309489612  0.2271995145873567
  0.0197645261534907  0.5928308352294286  0.6820446590668126
  0.0776772560441923  0.3507834608713347  0.8368533852983449
  0.2858501002002832  0.2441036136817374  0.7635074849647410
  0.2015743616287801  0.0278757830381122  0.6911581839785432
  0.6199096918171373  0.6244124118644553  0.3424261580713496
  0.4031644635072011  0.5776369023139760  0.2633697588722930
  0.9312758780522636  0.1664405185535373  0.4499326205296020
  0.3395081599874415  0.1986674586955464  0.0160097964389641
  0.0210580219782323  0.7283874577409956  0.3220903394907890
  0.9237841562654069  0.0467494273197824  0.7332712882509477
  0.6557209628539428  0.1844614985151338  0.5019883600641230
  0.6273733837496592  0.3529765049953972  0.5961693607586291
  0.9698276513056117  0.2506532563113433  0.3577101262764841
  0.7741006995163938  0.9589071563524908  0.8213405066161413
  0.4471810231623852  0.6947696820664379  0.1156914055431579
  0.9967628548898536  0.1895212190153801  0.5665596419065918
  0.4191283414839175  0.3450366506036754  0.4537284361444872
  0.6516083780329651  0.1027355476683202  0.7418713041077879
  0.5019674969339077  0.2746448474088048  0.3492771747219017
  0.8273588030108253  0.2399647774157433  0.0046448687852534
  0.2235379290608919  0.9053720456991200  0.4016741830416355
  0.9409335431286413  0.8785951470876562  0.9892904567146974
  0.9890991317241231  0.8269574664601201  0.6906397378470368
  0.4714654943855401  0.4944507712428998  0.6455172995733319
  0.3671417741088633  0.4425289167323047  0.1867799470395803
  0.5111661731455500  0.3978831186994075  0.8772508289033294
  0.3860916809617799  0.6619323361050972  0.2658089401547346
  0.3354011758286464  0.0996465966707338  0.6743998879048653
  0.5349439835168621  0.9535177798144479  0.1643053523625973
  0.2907842304961868  0.3953762516891685  0.8085030456781040
  0.9363369655387773  0.9901060830063689  0.0751253382098339
  0.1386955680457442  0.4602580119465579  0.0912876083634094
  0.3555533139243603  0.2824426679458424  0.1383344713238001
  0.7402926075013230  0.6565889858619564  0.2569730329006642
  0.6320993339815958  0.4752615754346520  0.7063419773065375
  0.4583128568467703  0.1587352018444896  0.7347147195755084
  0.4261880425234674  0.9909118351448089  0.3650924891619582
  0.5137091922974598  0.6977192402798955  0.8335920480422562
  0.2893458955087780  0.2555842544833723  0.1606565873092800
  0.5785546146092199  0.4259347917278140  0.0799358889656617
  0.0738488583779849  0.1732769761367573  0.5574555133664845
  0.1802946191230934  0.3325384146073058  0.2990665215837188
  0.9882691719842120  0.0590816906121514  0.8899290823922180
  0.4288512502932074  0.3841110107624656  0.8777652935214360
  0.2769403491443569  0.3158323825328564  0.6190081710097197
  0.0576517035311710  0.1890162171274539  0.2133623089063272
  0.6050403849608862  0.1578474305300128  0.3517010404494652
  0.8202616226584715  0.4625048065015184  0.2094029858078213
  0.7478068911974456  0.2864687477523526  0.8884556570000450
  0.4283362813500702  0.4584580493687516  0.2321588876782154
  0.2089308446771553  0.1280920281026745  0.0581310312935238
  0.2419517384062294  0.1284900998123920  0.8004177067867517
  0.0652278002228264  0.6941263756747120  0.5945052474180260
  0.6836625868519772  0.5244323103596384  0.0864118404180920
  0.7623490238259193  0.6883909790787991  0.7796129721013788
  0.1660223003860165  0.9014792935046596  0.1208922972368517
  0.1827721158361529  0.8186195403586808  0.9279149498743332
  0.1141390532836886  0.0285758293137138  0.8567502818417057
  0.7156972066250621  0.0883960475284764  0.8991263783458816
  0.8183228379801236  0.3739226364933101  0.6731139121635575
  0.4190734231424221  0.9114690698854304  0.8656296937655249
  0.0692251268667339  0.9890913810447047  0.7461922017098460
  0.1956603543417497  0.9527946308073436  0.9555248872627372
  0.5147655143458638  0.1105560163807473  0.8616061886710135
  0.8692485709249206  0.7414767626732850  0.9565480831196544
  0.9170056031587320  0.7452852129573592  0.5017492038259052
  0.6291815747884918  0.1732236769440446  0.4261484131934275
  0.8485605742124316  0.1441688616145448  0.8656650496045157
  0.8595042681169621  0.7712395839872582  0.4591104336110291
  0.8566362512979336  0.8111596706790228  0.2891665681452486
  0.8924155640538497  0.9506693520413466  0.1354964485723839
  0.0593324396902186  0.1794781699853193  0.8913287701562254
  0.6499987848825173  0.6525290101047021  0.1181619213360562
  0.7058714685963653  0.9777476777606021  0.0235174127591059
  0.6374699708632366  0.3048520852484699  0.8151982524376086
  0.6617062923176761  0.6695182339555716  0.0368574103646894
  0.4146337968107804  0.2354285861124439  0.0704094479350876
  0.5405620050977474  0.3870582862415740  0.1318442992326767
  0.5291168528522165  0.9442263077971662  0.3184573677739578
  0.2110892098195050  0.3855798706859399  0.0631211615753964
  0.6719479657795442  0.8427871674352613  0.5915603608469576
  0.0927033880774079  0.1095399407969601  0.4507065205608430
  0.7605360018841616  0.4548575933446860  0.3500488716490616
  0.0733290452602112  0.2758703572332800  0.3968780785435936
  0.5830331270550667  0.3358014771858677  0.0587871316149745
  0.1759256381108765  0.9322558612170811  0.8248158369457611
  0.7853361056360204  0.5253274607456163  0.4653491465875291
  0.6758689070888755  0.3621758978794515  0.9418191378824595
  0.7331976567964730  0.2596183769469502  0.2046316197797038
  0.3487313357782044  0.8235950518505204  0.9692391305382678
  0.9676514091680966  0.9718620453924013  0.7139511802821127
  0.5742443874630734  0.0160501424414160  0.4787265007425867
  0.2042257708471452  0.4359406534227201  0.1275735023409001
  0.9920035130322036  0.2038231203970179  0.2951781490539982
  0.1234301669647643  0.5814445562953702  0.8706534611997706
  0.1937201628620006  0.2666760075995321  0.2457946951397689
  0.9167170230675106  0.4940638743141246  0.5041676281518219
  0.0123916442468000  0.5082723561196906  0.1652790845513770
  0.8660295969714062  0.3181957823435874  0.0879903711281652
  0.0717468051068204  0.6571139085885933  0.3687721773026811
  0.7164890500100252  0.9967678450533147  0.2942888647644293
  0.0229936513072107  0.1150871976130186  0.5605326923561188
  0.1890409423256670  0.3576910946424328  0.7096702570745891
  0.2226324400117856  0.1225505046659118  0.3172591976748283
  0.2120762269913289  0.4169484628974972  0.6595292007906355
  0.6589751864727571  0.8788629702223532  0.1084477784921017
  0.2197058285872227  0.1006934161738235  0.2465923780777184
  0.7824273181197773  0.8865428317890643  0.8028779104599443
  0.2722892779077604  0.4199554876210259  0.5307933354277818
  0.7569371915523011  0.3526479505096412  0.9335402443530288
  0.6164583036547622  0.1872592283509435  0.2072536719726005
  0.2759827420848466  0.9838534081895468  0.3498365508111587
  0.2987320744581309  0.0820046700565147  0.2870269559310122
  0.5107027249858070  0.0923882977427991  0.6146725152646594
  0.4114870740537622  0.7351043239333953  0.0162567979175437
  0.6097642648058550  0.8606106510605137  0.7353008514348123
  0.2236852450566865  0.2887640371405233  0.0457817238058756
  0.7655989474102618  0.8303674999699822  0.2801676046457429
  0.7313518271843005  0.6871971621009867  0.0485221895252120
  0.0526833687172348  0.4306159897491362  0.3509815809781114
  0.3368385287094165  0.7120944678666473  0.0268889417164635
  0.5029495504856931  0.5243578295156385  0.3492213804474585
  0.0096942236642078  0.5809669339479236  0.2048018958361042
  0.1605591198612516  0.5391224491128961  0.3186550100991266
  0.4644985891516295  0.1446073722286935  0.4222556875423898
  0.0300787942173857  0.5643268622787986  0.3410149239184825
  0.1574978801969282  0.6666910940074485  0.7074454404735958
  0.9171442659987377  0.0493058044491486  0.5880757934062504
  0.3433670958614258  0.6678229586367590  0.9617303147872143
  0.4425511866639212  0.0859045226165382  0.0433471577610501
  0.3039434242603551  0.8879514912299330  0.1670088530479438
  0.6913727610073728  0.4157554422223648  0.3276610872359066
  0.3411274149437398  0.2304175860645004  0.7094244649807048
  0.3820849513103931  0.0467431133031158  0.4927095758028755
  0.8012758556415337  0.6294575202105244  0.7473163156597382
  0.3746595615367778  0.5279672572165652  0.7770218562675989
  0.3076010548168427  0.0136176749859450  0.8124879035492143
  0.0478622802226087  0.8696976856364241  0.3067724753349103
  0.5386334130937033  0.6289433210266444  0.6027836631658489
  0.1775635663650199  0.4599981518386607  0.8843635106145200
  0.7306515055206889  0.4140919659239056  0.2017082599244173
  0.7857627115251034  0.8861841239751601  0.4315099722245168
  0.6485125124737743  0.4763748596680966  0.4581306097067476
  0.2946861136280441  0.6136164055636368  0.9958794897835392
  0.2378903823909965  0.7933576341392844  0.8794023325709200
  0.9956366705529934  0.8256379929194082  0.2464857796922930
  0.5336180333810200  0.9689822963805546  0.8550718881397082
  0.6495783901543379  0.0426533359180637  0.9085427106233828
  0.0821301806305895  0.6245785206034973  0.5223199847839023
  0.4568789811543694  0.0473506258893770  0.1860012957356821
  0.5152875703828528  0.0352181018525673  0.7514279449174999
  0.2934874126604613  0.3176869714745086  0.0205151608747653
  0.5517149673465743  0.8745850198781682  0.1831695239603037
  0.1898057114195111  0.0541455761954035  0.4288853851347554
  0.5801225876729278  0.4945142631099161  0.3430136701886320
  0.4347712829371829  0.6830381793771895  0.8446926135747411
  0.3171531036144335  0.7858062427382750  0.8992000628872017
  0.5889021432406789  0.0837580953785323  0.6000314287564880
  0.7686896104586102  0.6033488788080921  0.3697755452228670
  0.1021451423179671  0.4086405839505156  0.9741224832666119
  0.1414185117881933  0.3912270369449122  0.8638129026577488
  0.6702512571159076  0.6116473082966046  0.8994182498215136
  0.9248792317109028  0.4888080111920901  0.7205531665412153
  0.6564425723425323  0.9149718461140863  0.9963065203673849
  0.9706450825500244  0.6216660700949264  0.2622461492474314
  0.7939865539959253  0.8015185686983887  0.8946142088400946
  0.1104319590590635  0.6521412106995564  0.2616492142151027
  0.4302207050987986  0.7885705278615260  0.1590927550195079
  0.1262692381813758  0.1899577256011175  0.6441739900390662
  0.5956380145237072  0.2567339297492917  0.1720984216269778
  0.3937959890207662  0.1502245178766307  0.9882616336521750
  0.5058331217504038  0.2901607785846149  0.4765013656205214
  0.4741554048384818  0.9482718439324903  0.0176433002363420
  0.4045709729308337  0.2921689477698108  0.9318296800227608
  0.9950794710243951  0.3645082153422409  0.8165072147829449
  0.4561496740732067  0.0393933357868917  0.6178268294405601
  0.1516769474214750  0.4849553926527003  0.1667124691904587
  0.1261696074444001  0.0500298293892008  0.9474590843304667
  0.8642841014969100  0.0707402187966362  0.8481854625633199
  0.8857455735458775  0.8229257859914274  0.9788594224755320
  0.2653985522969002  0.7328011511486928  0.6484071881726368
  0.5638862945493935  0.7874603226651106  0.0626936001230974
  0.7545035313017742  0.3181106575870986  0.3155593038004718
  0.4000750214562954  0.8395181325865995  0.8366395514853502
  0.2464407355040293  0.4162069989287536  0.4029327925141749
  0.6639058395802915  0.6968979336957734  0.9059524972659734
  0.7453822557106249  0.1268808915415728  0.8392692083688406
  0.5048771869265213  0.4083812812544944  0.0319980462545794
  0.2773877119899646  0.5270777871230377  0.2289096807662848
  0.9849829900845082  0.1792603148437906  0.6903038042897798
  0.0707572994891216  0.4397255596908898  0.7100764245282196
  0.3288162039034724  0.1575007601582874  0.2984766205583962
  0.6537405580888551  0.4337966615437439  0.5946241088647231
  0.6438178303937379  0.6168190818556343  0.7083294426220541
  0.5030073620602590  0.6527465069100248  0.0876396860637617
  0.8792704117602715  0.7361643089741272  0.2921258147079791
  0.9266204802377725  0.8224713095085453  0.0519090672167260
  0.5425742619700340  0.2836191786120767  0.6971820014051416
  0.3240504916243827  0.3974688555018639  0.4038049828395470
  0.6459679538033499  0.9857937323864092  0.6827043692937457
  0.9132654225577541  0.2921879528604395  0.8413028061529503
  0.9906399243230214  0.9656119187441551  0.3277744276506893
  0.5300269206417325  0.1805408624551631  0.9012092938093041
  0.4522171067447478  0.0858593987980065  0.1195858963318028
  0.9603543037562247  0.4251231734929650  0.7552791831989111
  0.9617982659492385  0.9399791478232735  0.8960668772757429
  0.6736958501620804  0.8159498029069651  0.4956220263114463
  0.9748146295560426  0.2284750056767114  0.0619900335260648
  0.2957093360283841  0.7453800791499663  0.2044880065913710
  0.8324928318228243  0.0599378354385221  0.2310987699203701
  0.3777605499765431  0.5324523524312332  0.8963695784678224
  0.1628598108359348  0.5853400159189425  0.0442757163623807
  0.5224947466787333  0.4045216552515208  0.6444444675160297
  0.7565080905814875  0.4369960464513309  0.8200227849413255
  0.5858785819648293  0.9872998061884609  0.5640651441313148
  0.2099906306422172  0.9461189600069210  0.7496145513678248
  0.5462383160348065  0.1314365126302636  0.5530590200966745
  0.6118012601480657  0.1919769899369877  0.8916443183648751
  0.9878857787872287  0.6350271796753126  0.6293561774227866
  0.0123355555062615  0.0604151790800307  0.9677040713186652
  0.3734538265621886  0.9522237348726499  0.9181410246066798
  0.8976933520430060  0.1988903438156703  0.5921370963346381
  0.6988427171876438  0.7553093896139047  0.2012272532905809
  0.4690862481514778  0.5286246316223038  0.1193312652781708
  0.7576002462504904  0.6243556089399508  0.6074073150468317
  0.5373051271366664  0.3865697545474118  0.7963952103423013
  0.7341785955245065  0.0998355128457012  0.1154023874854624
  0.8910692816562455  0.9668519212774057  0.9227063871314889
  0.5072977347262515  0.9780334973358663  0.5105823771074407
  0.7657822032003457  0.5248214369359175  0.1010024214287862
  0.8358567859509387  0.9272359691225447  0.6844147212766324
  0.4919795255058781  0.4309063747930990  0.2657171264557339
  0.2538136489310344  0.1583953133172554  0.5922803246433420
  0.3474994820757121  0.6516186237941141  0.3997711788970411
  0.6993724708172055  0.1523966457836327  0.4478391938708038
  0.9529156688146992  0.7527399332130199  0.0729469195116602
  0.7465365760755107  0.4361592119649495  0.0454479070865762
  0.4496919247728695  0.3144732796621048  0.5221070003604328
  0.6767210040432897  0.5702647851896508  0.3243535378809569
  0.5902128043650656  0.9810438399872282  0.3587423468971077
  0.8903889737333237  0.2228395185237121  0.3621921955409683
  0.9614200752630977  0.8668537171583308  0.1862700611618837
  0.2798523484147424  0.8305664694662842  0.6768853609164357
  0.4675605853034989  0.5444296472143660  0.5204475055753734
  0.2292875794747763  0.9486251899750161  0.1346817778439283
  0.2168652178520965  0.1847389967273923  0.4561202108740478
  0.6361156192651422  0.4788677648380135  0.1282018515139539
  0.3534136486232785  0.3813002746495497  0.3203256796651281
  0.4327640162283576  0.5874814330859202  0.4710647948769788
  0.3343209646998432  0.7482778776892257  0.6870440596390510
  0.1664186733166834  0.4769856238236343  0.6308671883014541
  0.3880087265769644  0.7967829566606019  0.5169885790809612
  0.3662841030356894  0.6134078273483297  0.0296391289643511
  0.9490908677822630  0.1625848342488296  0.8277492567582377
  0.4898990520373409  0.7410677816168519  0.3559268064246893
  0.1533096598930646  0.5577300254436931  0.3932232615899085
  0.1742433159823247  0.0944207209804558  0.9924571932124057
  0.5978195122589102  0.9228472796189985  0.7007305915813187
  0.1411314712154865  0.5228677879408770  0.7503840982777488
  0.1204492875125613  0.7847929210345894  0.2039693613841946
  0.2173201455731638  0.2302753664058576  0.0998021145841321
  0.8154362938520745  0.8401864428824763  0.7488885887579182
  0.7907440625699292  0.9709681690907113  0.3092797935833346
  0.6887408744763783  0.5570549200316139  0.8241310166409860
  0.6292710261228750  0.4189896255570665  0.1818697854543438
  0.2723579191987738  0.4741576344859857  0.7735852262482260
  0.4613403996360196  0.0832266960567651  0.3114939397284164
  0.1329740669315967  0.1302288267141084  0.0753185411475618
  0.9445128705882651  0.5757920813518648  0.6675813073168106
  0.3969973912284759  0.4867600268728957  0.9739119408380277
  0.3147655758324994  0.8802790087347226  0.3789705053553362
  0.0140283564803926  0.1138084018675420  0.8323014006585593
  0.4778578406924291  0.3636233638042574  0.5906235903742399
  0.6094526981106049  0.6465509004519340  0.8265046356694432
  0.2616891355227919  0.0594984754348482  0.0863475787918183
  0.7331174425731772  0.5948086918259402  0.1546024705657087
  0.4331396852893452  0.1093163522761356  0.4877799313454024
  0.5960405720718552  0.2294013976711669  0.3850622208571135
  0.9777216652063897  0.6320743831642899  0.9143754684936335
  0.8256719685004204  0.2467738820019064  0.8548676630457184
  0.7177209833427854  0.7838835433740629  0.6398081278790126
  0.9322068089719949  0.9116207920893875  0.6769450836174336
  0.1783629746254427  0.6913834314632843  0.2574085042929176
  0.5760797058798703  0.6967267286195796  0.5081579539680013
  0.4813158647104707  0.5742894581947597  0.9633595500704347
  0.6226708979033591  0.3060753123385958  0.9079299822545678
  0.2643219776170022  0.9817957620645020  0.9291876539043080
  0.4592868411980653  0.6104706383698345  0.8055266255209088
  0.3233074881371246  0.8593348679935097  0.3085604668290943
  0.7128292428928790  0.9147997385615220  0.4043722157819129
  0.2764628595140237  0.0163591991242601  0.6696410769156685
  0.1226230611117685  0.4035145977955843  0.5615447930623616
  0.3202768132240006  0.1185817321089369  0.0089857058893661
  0.7523163001872755  0.0455025367683500  0.6330332908515108
  0.6786284143960466  0.6808646977556315  0.6810047408536157
  0.5018674282304580  0.5362545915544036  0.0329535663374826
  0.8583339686116316  0.7663787931681800  0.0285142087579954
  0.0343516216809962  0.2007412963084173  0.3623312034454686
  0.6268400202146146  0.5919696073376174  0.4154297544262567
  0.5527876932301860  0.6028789540532186  0.1334060876789036
  0.2738323266975853  0.9935764762593727  0.0417475515733803
  0.0070896942776802  0.4379794271742496  0.6626856384403494
  0.2634109542642702  0.1698709639554292  0.2580186579497340
  0.3285980169691604  0.9792894259227164  0.9673306584486042
  0.5794201956223481  0.0742594917624789  0.7352439423366168
  0.0264386823198575  0.9343199839372563  0.5822356033776532
  0.7866344506122901  0.4508247980522413  0.6775921591751779
  0.9836883081005662  0.6921715056822288  0.1111461894761520
  0.2886392299671493  0.9297847747405955  0.0863371804059890
  0.6229500285361115  0.9164280182815264  0.5299243037697071
  0.1534737513319840  0.8198516329519772  0.5917418116843004
  0.4236885014978841  0.6753151051183784  0.9590477303189283
  0.7143669033679028  0.6783596356981338  0.1652484534416209
  0.0949587362503225  0.7011425455010902  0.0775206299428977
  0.7820856511832245  0.7419060229046348  0.4590366959828638
  0.0429558347165454  0.5106975755618098  0.5863985676148504
  0.0356861917933490  0.2095315223320799  0.8180889373395935
  0.1538797462533671  0.2552294485525999  0.6062196561430777
  0.4732214479685666  0.9778445081664865  0.1238862227812949
  0.1606295130181610  0.5863437819904684  0.1200942028758509
  0.1447662080699250  0.3034550252833063  0.7422262427556736
  0.5391212812022987  0.3275749007425112  0.4131413397845564
  0.9608021443834402  0.3696732999587588  0.0400370801450915
  0.8107470266302621  0.7657526869143415  0.3245622222699546
  0.4630032919791802  0.7624228676277752  0.6516501573802409
  0.4017878685209128  0.0418665225116958  0.8068201926810988
  0.7478028035103552  0.3380616761692745  0.2172942259209308
  0.7496340342400615  0.9468661042681150  0.4664778790929651
  0.2289654484973055  0.6250930913952945  0.0783832580002545
  0.4566486373324765  0.4853225412750122  0.7774408707377995
  0.9045346538008626  0.6595268118825958  0.2843264811958496
  0.7604531864054446  0.0776499893132589  0.2068797282340862
  0.0830776879177755  0.8213714031601244  0.8317115527200823
  0.7773036943294632  0.8765649999484931  0.1523186877512635
  0.4570404713378675  0.8641759105061249  0.1411120547018065
  0.1991162814294007  0.9742544571641057  0.3383682261576406
  0.2440061727771316  0.7797982451915854  0.0818677059955597
  0.4205900877701174  0.8570705547795899  0.7265953520162984
  0.2616725724270484  0.2149145549921058  0.6924385856010911
  0.1215774891495440  0.1560861948058758  0.7168038550028405
  0.6832299290625266  0.1609534356766618  0.8734843172270672
  0.9250079142239861  0.6056054944294389  0.9697764755867121
  0.3931017192575224  0.1194889464805164  0.8149721024764970
  0.4508412549742941  0.3532401608127356  0.9472054353834733
  0.4419794944265474  0.3786248303619609  0.2259951067839007
  0.3688278654034338  0.0561075996402951  0.0679373660802520
  0.1650627689283629  0.0891817195676697  0.7271803159650050
  0.6809980519111040  0.2356960907260687  0.8892178248384679
  0.5158167400571162  0.9773179928344897  0.3904793087284195
  0.7571439117280215  0.8212615664771336  0.5784535372557088
  0.3091247003646990  0.6216150536365629  0.6432989064806236
  0.7404275011753101  0.1834226685822664  0.3112570927679704
  0.1661284740766793  0.7334678157523645  0.7492469249639051
  0.9946759048261858  0.3696999230116925  0.6294699425323318
  0.9455165304861004  0.3586559745997536  0.7172208521729184
  0.7509409261984297  0.7756215845482929  0.3819477749020567
  0.2214097968769583  0.3556149742952127  0.1341147705206550
  0.7552317766460301  0.2715326576446746  0.0184382608145043
  0.5668928149478915  0.4519877184860708  0.5928025930277122
  0.3674739119566792  0.5128051764083115  0.2255746589688761
  0.1794775727583093  0.8802455640221640  0.7448613144973879
  0.8770964523571056  0.3236529507831185  0.6737593420290966
  0.2554307804135192  0.5821126542438657  0.2824145319178168
  0.1668937209521313  0.3593204360993440  0.2261945806052334
  0.3922489056306962  0.0527624548450673  0.4026230573150889
  0.6903935741452352  0.9852190141988516  0.8239936809721137
  0.9357351730601007  0.5579971053625553  0.2283342193628925
  0.8024811393779375  0.7736207944345979  0.2332325425816201
  0.3879149752081093  0.9892907752357694  0.2254427381582276
  0.0621598185291459  0.9866727443714064  0.3573521085915693
  0.4337589698835587  0.0101092831644313  0.0447779079654322
  0.2683219917824546  0.0001312957311897  0.5079169927770422
  0.8233763871346003  0.6927254138264166  0.0384983579331611
  0.6656113075734078  0.8213197496596167  0.1677108071320495
  0.9364182945858250  0.2978898516569484  0.1178193784665554
  0.4628594266283321  0.8407736895655322  0.9824693279580667
  0.9192752781440304  0.9973958624335851  0.3584391148365748
  0.0662356672531542  0.2550337969841311  0.5889983896912647
  0.8114390136591567  0.3090669684204011  0.6073998828884852
  0.2435061477809552  0.1343787050439314  0.9860431343857762
  0.9572503159096981  0.1822684145759373  0.3703906094128765
  0.5935150184920596  0.2792568467272376  0.6026776487357219
  0.2690085108662802  0.6560942164634678  0.4418539705807613
  0.4587513541892076  0.6308001927026458  0.2674193826947077
  0.3735112399854145  0.2543908091134773  0.5682625086442867
  0.8889787216870952  0.8012391195445642  0.7618113071695576
  0.4201247815707877  0.0979845669888099  0.6898035669462221
  0.8602227454816772  0.0878670902015944  0.7127531163566738
  0.2443367711064328  0.4495889893797719  0.0296723945088069
  0.8163753470591415  0.3290866282935905  0.8826454610390602
  0.5980838847486605  0.0496464826432072  0.2253295304605584
  0.2013888761911923  0.5850690075735256  0.5387209002148093
  0.7862276461165156  0.9867659648718083  0.6741370018467842
  0.8699763384875686  0.1226467776599203  0.5810992263664895
  0.9647594501818235  0.9489921262499467  0.4942066779280661
  0.7633124438949934  0.4717576312953988  0.5225185295854418
  0.1727781323228895  0.7111064155013394  0.1077993890349354
  0.9161187343206257  0.8799135058046160  0.8683178523525708
  0.2870826174883421  0.8071457212166709  0.2551892087238388
  0.4970579723908152  0.3524198363352522  0.3478676393480853
  0.9235486630195168  0.6214205434352688  0.1079914771489114
  0.3662949327521369  0.6740374640117878  0.8082422830938362
  0.1088926263484118  0.1812411708470635  0.8266135698760634
  0.1515674292595564  0.7791929489811169  0.4558751619959981
  0.0545958554995766  0.5042884007249508  0.7910418266853930
  0.4475340506838390  0.0877646060466822  0.7640836895839679
  0.1347532061943217  0.2525245410658523  0.4435911048771179
  0.3475120105712103  0.3331938513431897  0.5744017899594810
  0.8390069593529035  0.9370338896442878  0.5594786530420639
  0.5482047058727266  0.5287811316423408  0.1622554171018369
  0.4549910005870037  0.2380877592819386  0.7874557041095668
  0.4752461802495059  0.5598226027129659  0.1996357096675457
  0.6461547664120711  0.3790569041961130  0.3905664507850309
  0.3658341654780831  0.8603962863790655  0.0380529758904699
  0.9902760670851201  0.0345895171066375  0.3876826140860937
  0.9357862426053094  0.2916231619129588  0.0285501054192229
  0.8549748984732879  0.5485341628348533  0.2932848067152541
  0.1690034718158689  0.3710917539225909  0.4369682289443773
  0.1591567910266889  0.1730524984112735  0.3333621631863129
  0.9949883739978065  0.0594260915212388  0.1208579898630563
  0.2644937401050719  0.2694704725943540  0.4904898555390340
  0.7723436311096152  0.1163721779759763  0.3368095698352882
  0.8501473400193869  0.4606257445241684  0.2820766606907051
  0.0254928024762736  0.2045783073152797  0.0020303026670303
  0.0416853039293014  0.3601843714202670  0.6956750782135648
  0.0642955487678175  0.1010033239051568  0.1024499138970146
  0.6073486009958952  0.6093329341875374  0.0190875228866908
  0.1028529824060489  0.8568005550842345  0.4582648663385907
  0.1563790749315691  0.6674055898587636  0.0446496070140497
  0.7192933626146562  0.1758412432985109  0.6767975552742576
  0.8871408020148771  0.5315780120886252  0.8247990615026363
  0.5890435665966417  0.9531069938052735  0.4455866659365476
  0.8130049163358969  0.5345846386608140  0.9077457709012678
  0.0308801467835187  0.0356888195921930  0.3019623293662781
  0.3791540000362242  0.1674128837560497  0.5536035849560840
  0.4941929284351252  0.8978473038944671  0.6572391935435753
  0.5736264565834159  0.9172978993291266  0.9001656064300890
  0.5263897285206975  0.0193358979873933  0.2115614040370164
  0.8960652846703829  0.2436105430622994  0.0770090452861504
  0.4056216146867873  0.6284904902359676  0.2004101671106627
  0.6350531391426797  0.0387140066526807  0.4537337979158657
  0.6530484648862698  0.2010753983695104  0.7188142007486948
  0.2141433358465540  0.4034047611125936  0.2706797378441578
  0.1296112010838117  0.3054198490592891  0.6667825095551090
  0.0053670099717783  0.4845437041671553  0.7256074589115264
  0.8418993430339391  0.1024133636040040  0.2931141590509363
  0.3017492653125406  0.0828885195802928  0.7819392907506458
  0.6380984660251150  0.0033031257276661  0.2988371333250417
  0.5460007524019486  0.7158210582352202  0.4329094210977203
  0.8685342343341413  0.1714947976521372  0.1182101109199058
  0.9852982197720860  0.4198749283332355  0.1769694847506277
  0.9197596425208340  0.5750158454994292  0.5905481539670240
  0.6347775122417191  0.7296623914184742  0.8399885882099263
  0.5436238419890808  0.3327105221598701  0.6209601212257095
  0.3679250705117280  0.2411635314701715  0.4185418114732736
  0.3707201194618485  0.3919808170617726  0.8132824543632893
  0.0722740901980745  0.2868000627540658  0.7222050699073922
  0.7802825033946984  0.7166962479673538  0.1799050280369177
  0.6698930801704568  0.9988964152037223  0.0863295823512510
  0.0828890968997357  0.1770320475978507  0.1192704410251324
  0.3026171556034409  0.0621656182669983  0.4780866449958074
  0.0212250066502222  0.9478968384570694  0.1017746890395333
  0.6733962280070299  0.0666591741976411  0.8133614475891425
  0.2030652260496444  0.1548212414553194  0.7056277468894491
  0.2430943531217196  0.1478469836933303  0.8962971680107904
  0.4670598701783332  0.4366577239860340  0.7143743355262492
  0.1358092229933651  0.0253179062053654  0.3446403042164313
  0.8002251077118893  0.4043576168994468  0.7439553874818078
  0.7069395228375877  0.4809806743690482  0.8458493759345120
  0.8667538608022625  0.4112496696814402  0.5596883991679682
  0.9693387214601095  0.2108541810835116  0.4941123426039122
  0.0280337761256741  0.7592469471058249  0.7303603241740461
  0.2724116961730945  0.5397050241535627  0.1268089588661488
  0.8881127690660496  0.4149585821305179  0.7191525763008373
  0.0694094244861575  0.8296945711185613  0.6588946006415440
  0.9681547786355288  0.8205743041774733  0.7622449736090697
  0.4032464295963927  0.5423207191967311  0.0263844441535679
  0.4008816229842606  0.4358273660947830  0.7350562803383704
  0.5768675677514334  0.1708364942266052  0.4907411155779874
  0.8346614825414570  0.6391593535422175  0.9043150866085720
  0.9887157385271398  0.8886898230748018  0.4427159151449845
  0.8092873507310300  0.8157478605473246  0.4253495623448807
  0.2005190349587261  0.6027703383676706  0.3381857932136592
  0.7188647394254505  0.4073493526115201  0.8842629641294624
  0.8249205242047545  0.8725670827134314  0.8774161413396915
  0.8773273801342972  0.5624228494841429  0.0192847736963752
  0.7243834886055659  0.1250173043796369  0.2576424049334478
  0.4200614755077300  0.4282371947532591  0.6531958339689098
  0.3437843584657306  0.7728628204569564  0.3500198066012426
  0.6770600166375760  0.7060193154606133  0.5490511225346904
  0.6224476677187405  0.7661115009019365  0.7724678543276907
  0.5210910243144806  0.9545962921642004  0.9493567267036827
  0.8729993688949648  0.7326849440442624  0.6495098019501698
  0.3923441168877980  0.7160193906893784  0.1691317694493236
  0.4194153555132016  0.2225827374528441  0.7204847906844284
  0.8052384170376047  0.4617576622403243  0.4172362201426160
  0.3229581236079986  0.8073639612378283  0.5400784901104690
  0.5237193009399925  0.1048201088239480  0.0114170676453867
  0.2891115170866400  0.4938585874832281  0.9218238714146999
  0.4842308103007721  0.6137821426947613  0.7238013382596619
  0.9463856683178660  0.2885658374034786  0.6803686011860098
  0.5785798308607523  0.6162512649579697  0.4982698388960402
  0.0518252165445250  0.3460465216624145  0.7713909876701434
  0.6343899251839545  0.4524470789587234  0.0282648598454739
  0.2763137120220652  0.4037255649189313  0.1087835793322454
  0.5164633378332524  0.5545035131581417  0.7560251064626626
  0.9437042517601772  0.4275328119459795  0.6104414936917474
  0.9922271148247394  0.1437882952920754  0.9172173134979136
  0.3477067331198858  0.7453968545930910  0.9548215927357868
  0.4582594514803669  0.5172546503497621  0.9122932962460456
  0.6110644678217113  0.8525664544742931  0.8261467772450644
  0.4224273704001915  0.1786372743552700  0.2340003641690707
  0.3455026734754171  0.5452554130934958  0.9694488235773268
  0.3875277863016847  0.8596528581970447  0.1708011649310372
  0.0568788453292696  0.5499054491366085  0.5074376716505451
  0.4493705900980785  0.3976356809133179  0.8161404377685503
  0.5431818409148517  0.5814280993733174  0.2297413658286691
  0.7654069322906982  0.4849212578111522  0.9849385033081205
  0.0956027991295943  0.6191910021050409  0.6807848551402531
  0.8748575146552542  0.6169734584018579  0.4575943794820552
  0.7841626209199698  0.7601039280500094  0.7760685226991377
  0.3185006335529029  0.6311268360619698  0.4959697982352123
  0.4408048417998997  0.9092354939549574  0.9429424555296718
  0.8849071729975589  0.7844227464620936  0.3604297653628113
  0.3122659551766481  0.6436197102869613  0.8530844759110369
  0.6627837429305219  0.0091625696914794  0.7606317174662941
  0.1223596309135228  0.6470793799972080  0.7759094214236796
  0.0136920214538677  0.0260675422303622  0.6766062302836833
  0.6279330252731427  0.0668041411005298  0.6757743594173403
  0.0009652852629426  0.7752613372158739  0.9472831545250384
  0.9182642922615394  0.0737519549776881  0.6604252536529841
  0.0033040412683776  0.8055190341020264  0.0331866242243431
  0.1353932610167709  0.4384240560473227  0.4871892871042453
  0.1754290637596466  0.8088109493810260  0.7161625128243918
  0.2894993164917858  0.1183045391460390  0.3587779416269024
  0.3333424945101176  0.5170460190476098  0.5793365838409512
  0.4391467272728189  0.9332545309514553  0.7030796844872328
  0.9101364838939218  0.6714654063554818  0.9347169673666446
  0.4200730484400123  0.3648375395872542  0.7052135102353281
  0.5608438343566059  0.6222931849988261  0.9306218481177809
  0.6508659054141602  0.5240076686838326  0.3864958311152878
  0.0156284537213817  0.8533521928720431  0.9472696704663243
  0.0110873203645747  0.9497040208458406  0.6552161600416866
  0.3246159461574300  0.8402013602860146  0.1023925601964897
  0.0472146041199266  0.7627933607213431  0.2281941231780630
  0.4921002449921618  0.3572084821315251  0.7412483830646693
  0.1676677138853517  0.6582549041553007  0.5431266305957070
  0.8403029685079789  0.4877234469419697  0.0335308393294719
  0.8965738566486576  0.0281672563624043  0.2352164510784996
  0.1104889079723927  0.1161046866340628  0.5995603891778627
  0.3492474726319388  0.2597740541208845  0.8448691273354678
  0.3274976062957086  0.8216560017379460  0.4515581397336492
  0.0141569842476666  0.7610355490987299  0.4780233123893270
  0.1631212635491919  0.6266144011219563  0.6396641563544737
  0.9219491563696820  0.9409473457084274  0.8241058534762991
  0.0395445802092408  0.8000191838388490  0.3471774041850865
  0.0899953020157960  0.8099364966757424  0.2728926895352196
  0.7206615167925366  0.6419134459911648  0.7329081211420356
  0.1734836564973438  0.7283991899338139  0.1908000413042794
  0.6647652625193614  0.1112361849507001  0.3878571105466980
  0.7414529266797312  0.3846270679859321  0.1067525628959900
  0.0307341015540843  0.2777717156856692  0.9399163991720918
  0.1069295610741805  0.2490464767636980  0.5187429931454731
  0.0365727255207441  0.1585740567254862  0.6278765939565554
  0.9478198625313389  0.0342879440100212  0.4554210040341880
  0.8756326356839380  0.8122037296661554  0.8858213815610109
  0.9412377307523901  0.0872469031310104  0.9450890752074920
  0.0944744913189209  0.6101573728955340  0.0764063569669587
  0.2363425292416691  0.2186632825751821  0.9198298233303621
  0.5864605730501975  0.8516023973630751  0.2507202253667289
  0.9812335723724426  0.8774423662412850  0.5413329322656500
  0.7983898954687830  0.2904541630353389  0.1744514031443124
  0.5887687890852064  0.2473123418741027  0.7479996495328440
  0.7134327341506063  0.9632174896723279  0.7213119899083822
  0.2886124741971022  0.9564263018964642  0.7267841819251422
  0.0278867388358175  0.2518523554302661  0.5205895659734804
  0.9337479200919653  0.7445115252734994  0.9169005973786665
  0.1359878867713279  0.7262699296544169  0.9907116977379095
  0.1239840087503954  0.1192513164891017  0.5232952963063306
  0.7225140884340663  0.5353669795004626  0.5137435925732345
  0.2585831834629880  0.8478284535284665  0.5183063538426224
  0.0707370800369060  0.2456360981893413  0.2737216937119146
  0.7206111904631625  0.1306821485581045  0.9764971640319758
  0.3362095823093528  0.9679826710829644  0.6638784998549458
  0.5808378798269230  0.4381005448118732  0.4500812636965299
  0.3702108573545845  0.9380482730848800  0.3742212234548765
  0.5138267796598688  0.6748520285665527  0.1537143276433145
  0.0950342788312291  0.8992682263966071  0.1580676745795813
  0.7382355984184221  0.0818044264759247  0.5591547171118517
  0.5269466095282238  0.1193352600632820  0.3324016363503093
  0.6903249328542217  0.4974882412722261  0.9920758173155449
  0.2020721835208753  0.3149220493091137  0.6322123558753063
  0.7434156535253235  0.0351275058330815  0.8277481419344858
  0.9763221897897635  0.8944788373844995  0.7417108225743513
  0.5091142603998012  0.8503201907877859  0.2485987688535957
  0.1955043055598981  0.2286530058691076  0.1764131478832660
  0.7713423070329746  0.4703378236170107  0.8955038381941581
  0.8632857502836079  0.7160609046024276  0.8826403647019083
  0.7245988619370753  0.5732014432996928  0.5833167700696725
  0.0592813104223088  0.6156760159019589  0.9372756471379270
  0.3415612141003652  0.1281142184040231  0.4974412594141078
  0.3270088357107425  0.6577439963558315  0.1960163281831193
  0.6399974886563096  0.3392973255812080  0.4551561537628297
  0.7326443856944292  0.6597078911120210  0.9065983518262751
  0.4110968591971537  0.0049140862791222  0.6765699719683220
  0.6911908854752675  0.2466006861690127  0.6728365333967010
  0.1219087643361232  0.5806084384814009  0.4679587366434843
  0.3545741005188001  0.5237597000292896  0.3024634160993612
  0.3683590023854668  0.2947217879881069  0.0404864105219042
  0.5301824120117083  0.0042000424954743  0.0122620119768744
  0.2299463872253389  0.0270590950095341  0.1492540770722615
  0.5748769703120422  0.5080869768557933  0.7428217178997558
  0.2948131504489222  0.2095190469234270  0.8725311960059874
  0.0699762791847505  0.5593572965136363  0.7302553714808259
  0.1756954270060969  0.8985425292209270  0.3372238861196771
  0.2080255414320077  0.8769355992157517  0.4697666091612449
  0.4966345517124520  0.2232246104997460  0.7020576034540674
  0.5080170614804919  0.6999963474235401  0.5726748748808508
  0.4061175519958732  0.3212265103435566  0.8330354324689566
  0.0717015153918971  0.5227075187548215  0.9092453681081890
  0.2081579400242641  0.9801696058183108  0.2058898974594597
  0.5224162843213335  0.5042414719536779  0.2292391111849888
  0.1462872125472260  0.2937942015396314  0.1871977670557611
  0.1143454549383371  0.7661965991150026  0.6974457368527480
  0.6537083874605844  0.5749366930130401  0.5307763476372758
  0.0729035741024471  0.3105353240188448  0.3259302968175673
  0.5857579686522366  0.6898001693881208  0.8936278552538374
  0.7491238165695816  0.6173032338850566  0.8060713496408543
  0.0663530356323263  0.1508512346291905  0.0416591453862644
  0.8064018152530421  0.2128263043007275  0.5159938908599869
  0.5043213676559016  0.0503752887172670  0.4789846620714333
  0.5146155440078026  0.6603564531014346  0.2311600586833052
  0.8200506555351245  0.5835704721035111  0.6064077428360869
  0.0540808434233776  0.8245704695466393  0.5073680747963157
  0.1274857232421447  0.6549379318853047  0.1297903824585165
  0.9170489220245225  0.9534348581620402  0.2936485046926194
  0.5207371474035015  0.3332741451967535  0.0091979072818670
  0.4490332762828428  0.1871102666629436  0.5074059257170370
  0.6165602303977984  0.3783793302457258  0.7893130535671762
  0.4029501784560209  0.4749199084980992  0.8407754414314281
  0.4751431386827177  0.1579883097458109  0.9777241072012749
  0.1058454480622455  0.9461777802315482  0.2225730889187051
  0.5396148296033447  0.7641969769119050  0.6733960156596486
  0.4908421398446531  0.8419559866979078  0.5402778312146884
  0.7803890486932784  0.2360516929595211  0.4242398614734959
  0.2191633606582038  0.4958533787834005  0.2771935203097423
  0.2226025255744414  0.7464891164357844  0.9392178824612213
  0.7935626024491088  0.5997892996549317  0.2741108202881937
  0.0126323159485557  0.3837450565941737  0.3001418752661740
  0.7218410003221095  0.3423349283276476  0.0043916582194750
  0.0710890922724428  0.3732926814431851  0.6169265827174303
  0.2322100899405375  0.4203244677395017  0.7353502222009703
  0.5952602485323291  0.1713410183329234  0.7613298625692472
  0.6979669965870570  0.2364762550050589  0.4246213966308927
  0.4305612041247542  0.5611568343966798  0.7497057014812588
  0.3450550451955828  0.8641340249851582  0.7078562795696155
  0.0789108549767248  0.7650803951050648  0.4358306840226163
  0.4352989396363543  0.4532141838737620  0.0428771832372592
  0.1526864203288741  0.1813898671008368  0.5751034918810715
  0.6251017976379289  0.5324485301783694  0.0211159364085610
  0.6488955340628403  0.1273575583258034  0.0225580554926636
  0.6086145099096676  0.9217041074916322  0.0594063697581982
  0.4007424027323789  0.4894135197499400  0.6064398603775125
  0.7969255479271620  0.8257939089841465  0.0937587943777300
  0.3356827484562842  0.2618394243819250  0.9681571144567234
  0.4627346194549580  0.9677814719391584  0.2111528211319233
  0.1455606394385979  0.9550449821809414  0.0629767852636620
  0.8878817882020127  0.3112425469723495  0.2433463298330850
  0.0192994887063155  0.8198297611717006  0.4285575207779888
  0.3741005039685930  0.5881804275783987  0.4262972952511594
  0.1368999851326779  0.8795405707161630  0.0464589228304177
  0.8194147813017451  0.6536344374850377  0.4030298618108633
  0.1401241350536120  0.9129058122674792  0.4104377860123646
  0.8722980385812917  0.9875795738633573  0.6135501531806631
  0.5846920378848275  0.0361147220805754  0.0512113998953808
  0.9715808974595261  0.7627700555962426  0.2017948047540188
  0.6312289751523875  0.8508859903853279  0.6597665520761122
  0.3743179211436476  0.1887572462242161  0.7742704712477635
  0.6217856747574581  0.3235230207291699  0.9831776126484782
  0.3127731734403669  0.4223104731667718  0.7195006136588298
  0.8876845174847614  0.2454966125032331  0.6576449363024430
  0.2495489172113370  0.8696283011295760  0.1128402172540994
  0.4957336148603329  0.3378152470332461  0.0877041865808394
  0.2416335623987357  0.5901337580523671  0.8655160879165157
  0.9961218843193224  0.9922699028220765  0.1564200845195876
  0.8796172812076669  0.6294594844238015  0.7338851314435145
  0.8566196351153449  0.7851854982558151  0.5438384721047558
  0.7984404872323838  0.0683932891796693  0.0837365885703174
  0.9987779253649426  0.3001149336921684  0.7343625945304251
  0.5212937098899558  0.7075101533380548  0.2908530841345816
  0.0079776356359585  0.4351072961247079  0.0253651468618547
  0.9933967242010806  0.1332607093529636  0.1045622660161734
  0.5849078889979449  0.1690049317041155  0.2829739876373417
  0.4785493499397158  0.1780247450621251  0.8367320287699175
  0.2895027140498870  0.8562569457880410  0.8757608935022585
  0.7435110505863840  0.4559933333137057  0.2736639617676167
  0.0735154862610151  0.5843577500197756  0.4037429508607773
  0.3195398616371102  0.0405969970565852  0.3760125063334711
  0.1806135118029991  0.1459396264274187  0.8469415846903601
  0.9223459274516888  0.1556025736449068  0.5305181863084293
  0.4460150236915265  0.0983804355944461  0.9580602088220738
  0.2796443276113114  0.9519277226230820  0.2075047992944407
  0.0306975413072901  0.5821304383370518  0.8744596818363407
  0.2272475050955363  0.2795715986332074  0.3181010488680935
  0.3925377776995669  0.1805693302759721  0.3742961024502164
  0.7351238598924774  0.2019962693320514  0.8217548494439528
  0.2900095341622658  0.8855715017800359  0.2468882310667502
  0.2117035440653912  0.9135382889427575  0.0616938022932599
  0.6040280188204166  0.4061478645845573  0.6497417383774227
  0.8873130157411322  0.4826576878130669  0.5823102434821892
  0.7879176127507952  0.2561179099960662  0.7851943637589854
  0.8952890488179472  0.9267540467406263  0.2187480622671764
  0.0942966835663390  0.7602456168401989  0.8504437238768721
  0.6634149455215121  0.2842609454852880  0.7398372816289156
  0.7702957529641115  0.7448439550989647  0.5347457041495494
  0.8937353030287881  0.4232994545518730  0.4201457774181163
  0.0414668515607627  0.0326222546536972  0.5635340633306196
  0.5817392413738047  0.8567708264508489  0.0919923959578846
  0.1370590067778681  0.3336970880935087  0.5938241431924243
  0.2150605703601898  0.4866785916521573  0.9518494726130635
  0.6564605156962544  0.0414444356403215  0.0201047464735083
  0.4821511331349148  0.6915208733058473  0.7603600720787334
  0.7508614021041232  0.8125524571531373  0.4987454439433641
  0.5205120591792965  0.0917710370845640  0.1602889609053601
  0.4298785338372152  0.1638412140738650  0.9133959100235787
  0.0634518859859553  0.9035347099822005  0.5146889631148960
  0.3779368248464660  0.2185490396840289  0.9229845622010254
  0.7040759653135670  0.9572922545175099  0.9472324035009017
  0.6137194471304249  0.2249542064640654  0.0246417705766939
  0.3831033428078078  0.8142814957055807  0.7707886112361682
  0.0241557339642623  0.4047390724265755  0.9539473585668695
  0.6710358806899055  0.3553435412550333  0.1934437263866487
  0.7324480705403937  0.5787622372613109  0.2262717157914999
  0.0634639300639899  0.9161601420599843  0.9301329182722787
  0.5547469163439863  0.2227330793988226  0.2396635626553330
  0.2920602259105722  0.3272767650191301  0.4356908798154360
  0.1326696006019099  0.4071621949383042  0.1526234460585997
  0.3225608216575385  0.5704394939976365  0.8307645364862155
  0.6671155233358729  0.9021658125884852  0.2127875641753469
  0.9423021220012846  0.9570473118131508  0.0051758280668418
  0.5944551865228785  0.3991759426437629  0.5393366545338082
  0.7712905473587766  0.0524464255368817  0.2899299304376914
  0.3427796368309886  0.0619322883100555  0.2223218554231744
  0.8533426372398835  0.1742294072288478  0.6528310742546377
  0.6086116963068650  0.7965432164670854  0.4631063335459684
  0.4487586049450982  0.8462084022694882  0.3044309207610332
  0.0678056642528405  0.5669650130575423  0.1540086676572544
  0.2132429298628882  0.2736560783710850  0.7719868344221431
  0.5790339357357169  0.3936696688723003  0.0089169816501568
  0.3072164406224168  0.6411449077313023  0.0721438283513426
  0.8618800637060779  0.6552948878333130  0.1756191942962010
  0.3240978450904183  0.9996925055363118  0.1073705933134824
  0.6342268423950965  0.0609073273155310  0.5370954340976076
  0.9320562546786352  0.9761946751872775  0.5613022923528879
  0.6659350311562386  0.5321339906197808  0.8935176469629293
  0.3669448219126838  0.3073849117260759  0.4999990897958650
  0.5425660865958528  0.9774807571022758  0.0882881418794847
  0.1823376000071154  0.6217992649898628  0.9045953851519217
  0.2419505439522094  0.7378778461677339  0.2627784245021467
  0.2476873473495237  0.3153602812173243  0.2015274195857959
  0.6622651906253249  0.5777585773634756  0.6153528231875812
  0.0926354037361054  0.3562451947795643  0.1972664304886943
  0.1826347801672805  0.3914850390132228  0.3657425375830411
  0.9454197000802159  0.3975724279371055  0.9373365908363674
  0.6141399480322949  0.8395909677383941  0.0214404032072265
  0.3816122925829850  0.1239393892568944  0.1861486515466108
  0.8068132913912057  0.8564025630047849  0.6618263216749702
  0.4402850154104148  0.8375364537372241  0.6050104970669646
  0.9573487389209425  0.9787654587592955  0.2301440560939304
  0.5606509167606717  0.4672981239401804  0.6728536273608977
  0.5175916987307712  0.3940789153629599  0.9560724249854852
  0.0518204354105174  0.6529185082888985  0.0233298088245965
  0.1317321532719141  0.5777637798743180  0.9495588814107045
  0.4772878472341059  0.7817321458801627  0.2705334570418472
  0.9067481629038003  0.8717632417014233  0.7865443091489175
  0.1300087817402098  0.9406991116196578  0.8934896171085944
  0.4107967327170728  0.5511655184973945  0.1639107047544037
  0.4655063898234006  0.4435530150655925  0.5888875443582128
  0.0880217454537561  0.1011965932014415  0.2103685293507087
  0.7699624737491210  0.9854486678917552  0.9703214651408842
  0.8121272846088782  0.2135850214942038  0.1832060211664690
  0.2551328304940969  0.5580625083560036  0.9499213583906273
  0.1898361434535973  0.5450649905792921  0.4619851924594147
  0.8463581602601681  0.7882714896617743  0.6983007535836554
  0.4809629964495529  0.2800556179455164  0.9618579355633909
  0.2288381462422008  0.5484421633318940  0.0584921147437566
  0.9069710214805016  0.4960347765338979  0.0530617053922003
  0.6317905278023029  0.1803962804319031  0.6346927856365702
  0.7115744822166263  0.8820993035742908  0.4867231846022357
  0.9309039516138720  0.5032815025295503  0.2914237411784714
  0.8757349871217368  0.8600688467170615  0.7056232345075959
  0.7252059631002852  0.9682269767451794  0.6218808594711374
  0.1247051139139543  0.3378825080662811  0.3788486445018780
  0.1775350056422317  0.5807106306586637  0.8143777952430119
  0.8361024187842870  0.8572333721342211  0.5618912378149943
  0.4564694161426377  0.2236458811608733  0.3919437359003086
  0.6362552376683637  0.0333030403582270  0.1474799943315544
  0.9435508307771696  0.6192828954343095  0.1837665120794778
  0.4194627886095053  0.9419244621835970  0.0797355524830924
  0.4055030186743170  0.9113945359545852  0.2316128098437140
  0.2742926161900310  0.6357731029390640  0.3633421096976916
  0.7104977217327697  0.3398052339739160  0.4104558089963546
  0.4075688136301200  0.9432781767395475  0.1588986827846876
  0.2582573894931893  0.6991097440196605  0.0783221484054224
  0.1444140033945738  0.1051808140304078  0.3857050229238088
  0.5733071922955931  0.0635769386859891  0.8910270245273617
  0.2286696485951189  0.2954439814319951  0.5583746590065524
  0.4001438220078448  0.1342726773420932  0.6204325441568062
  0.8010385574429022  0.7536593973741597  0.6481435058118757
  0.0691797774291096  0.0662549444138652  0.7215582597838746
  0.8544741302612767  0.3769478169179422  0.2134105913921562
  0.9296249833361480  0.1274137374798753  0.7175377275527015
  0.1260165580693098  0.0251036344258966  0.0871469472371071
  0.9129687732660423  0.0257229936734862  0.1342564991259785
  0.5468359677395473  0.9051445154800296  0.5264086805244810
  0.1536985608502511  0.8816594259738749  0.9594115875568298
  0.8694059203344828  0.2666481370057332  0.1509509184530115
  0.2277295601945680  0.6419084027408584  0.5926201866271535
  0.4642969122262155  0.9627242067055086  0.6331789611551002
  0.7216668223825772  0.5647756584692302  0.7515800387293743
  0.3982268560229282  0.8636371321128565  0.3642150963257437
  0.9355713470554080  0.2446958505282544  0.4269853538534996
  0.0740010450918387  0.3166999277592620  0.5396508755713247
  0.1701768636299400  0.2456796028590904  0.8833671236144951
  0.8079168607319549  0.0886562659725796  0.4189915632269211
  0.5989025369905159  0.1940135473127246  0.5634189710499411
  0.4075493042144608  0.7365504626870679  0.4826314629114732
  0.5355902627719265  0.0155307888566472  0.6262643995506862
  0.0618404347959209  0.2025120345778685  0.6904673117734005
  0.3677600500530154  0.5740600168492375  0.5135282723285703
  0.2175447560157610  0.8690691904745458  0.6476747489675996
  0.3332238984976473  0.2159395159866303  0.1008380579197845
  0.9079338045074317  0.0854873263707901  0.0762111433649639
  0.0446745478775719  0.6948676803829196  0.9568964389987190
  0.1994053791173641  0.9014566785085485  0.8956380417391558
  0.6927870476538464  0.3528066270903367  0.7994765301058713
  0.3301271039186632  0.3062019244647112  0.2999132833101771
  0.9965181245328758  0.6858607007697689  0.1906832104294164
  0.9270002635292733  0.5907685174619948  0.5127125398632082
  0.4731300324209060  0.7723460731045005  0.5689761551060768
  0.4572896079030077  0.1553997818957409  0.3494769670643065
  0.7383245188843522  0.7032735576463830  0.6007254861723507
  0.3774561765488356  0.1810321679369938  0.8532324820358209
  0.2991728014480721  0.4398738843367457  0.4598296011047335
  0.5575100866434851  0.7723941166995254  0.3435295416081399
  0.4078819463873073  0.7248350453119548  0.7555362827908512
  0.9262528007470073  0.2951972868617401  0.4793848307115413
  0.0802646159836650  0.5048275507261366  0.2027028950585462
  0.0148594592464421  0.8674078907367452  0.6170466651615699
  0.5575156076753996  0.4780231531287911  0.0241164463807893
  0.6747532339473910  0.2881217659422815  0.6064565296469464
  0.8638802167776288  0.6372720100169958  0.0675470317782416
  0.1982672502403044  0.3892580723949934  0.5111759411250910
  0.9533205090971965  0.8134730892248743  0.1275293075421618
  0.2806763093411311  0.2196069676095043  0.6113007042834360
  0.9263906141974876  0.0748062265466912  0.3458384212287155
  0.0783317504885717  0.3862651156854776  0.4988862302571830
  0.7880509138194225  0.3166094412313947  0.4184010517028774
  0.0321934058453989  0.8280640617510528  0.7580580141177828
  0.5627189148205560  0.2494172352914925  0.9149275716850800
  0.9470565798691640  0.6515629356933614  0.4493165476895312
  0.0555745546263226  0.1004932721310685  0.8965275649195287
  0.7085174231413726  0.4894339581853925  0.7731271398598613
  0.0657844556112600  0.8749339066256860  0.2293531948156060
  0.1227420287321561  0.8381304424496369  0.1187090874508869
  0.9997361429231743  0.2950408664719712  0.4421117868451132
  0.1514661793737981  0.4462666022515520  0.7028610197713129
  0.0067236778982414  0.3751170374264211  0.4547214255864109
  0.2139784348332434  0.7441778744505916  0.0196346724118823
  0.5835705782772017  0.4402740264334311  0.8232389983788826
  0.0329127193279279  0.6835835936261242  0.5182353236435689
  0.7827880432338042  0.9902195826816874  0.1001854215149917
  0.1207035867734100  0.9919181493849107  0.4131122216498921
  0.0729517172353070  0.2030413900560905  0.4321837239220402
  0.1958828280388222  0.9899876993412799  0.4748316781611584
  0.4253880503077460  0.7815339195996953  0.3707803199444543
  0.4729555890471470  0.4747562948407878  0.9784265523386999
  0.9570510278923240  0.6424177710218131  0.7050755906111571
  0.2205081566241386  0.5347671512350632  0.7434806849108544
  0.2916137655413352  0.4663962315248454  0.1612593486228840
  0.4956195843165611  0.0404378626018487  0.8917549513505458
  0.4204942394708716  0.5054678842545237  0.7070093851260437
  0.7612572928516792  0.7354229511790743  0.9192778263126062
  0.1090187208777851  0.5357711827408159  0.6312722940181779
  0.8767243666581781  0.8861122443865814  0.6302710761152278
  0.2564851647920687  0.0632469574912648  0.0105767368925510
  0.1848027673003466  0.2606127731902751  0.5023698952215196
  0.6455219712157210  0.2977604259280304  0.3889379321742225
  0.5387960711877986  0.3727831804451172  0.2505438974099606
  0.5235398143159270  0.2075464990114485  0.5420274143762752
  0.6118998424198461  0.9775691997865980  0.0043968175972556
  0.1248191179143035  0.8646623452698963  0.5337759667458808
  0.2363430070232771  0.3792642083271321  0.9879286729582565
  0.8576894943093085  0.8886398152664998  0.2661613837208897
  0.5887412370124794  0.9903913717131798  0.9133393194464554
  0.5571450614949865  0.1715508573608071  0.8284970380615757
  0.5080121244038760  0.2513335111474197  0.8427606240125957
  0.7518654866967214  0.3431128895025564  0.7525344871215874
  0.1769714489639049  0.7902542833349018  0.1449887083104202
  0.9357836944367335  0.8384059100900615  0.6399341029629840
  0.4232984459018117  0.2619731501453147  0.4695801150735957
  0.7149888157609602  0.6148081521544813  0.5002192940302997
  0.6223853968491667  0.7654954280618657  0.5393688782489243
  0.7534901034243978  0.9512063785687190  0.1629551415384387
  0.8389590750184146  0.5612390659200983  0.7517264522487983
  0.8475018101691423  0.2788204994020362  0.3930385724550006
  0.1167986113328121  0.3807520202543898  0.7354990777152796
  0.8478720909153289  0.4755763273406218  0.8667512064599960
  0.7008261479029151  0.3784455295418541  0.2641041357471848
  0.2623023151297921  0.5793261788192663  0.4725805304848807
  0.2301102663168769  0.3200489113969929  0.9343383519857410
  0.3110917272447631  0.4227393883336268  0.0414573954664381
  0.1459817508391892  0.6393778589976016  0.3909797849627812
  0.8324033274015957  0.0312870043661385  0.9559143323600883
  0.0212446720084897  0.7747255316859442  0.8140629902501967
  0.7788652438848863  0.1596270873894797  0.4662783256413644
  0.1117125464855700  0.3092273703235699  0.2578826494519950
  0.6175496630210849  0.7603309274006466  0.9092083134901477
  0.1186845613283438  0.4498205011122621  0.7749865066175933
  0.1345272022220346  0.6870898735865719  0.3259391623207376
  0.5468352776105581  0.7758045218173047  0.5552628143069166
  0.9384918667644692  0.3247291273116765  0.4049973664725354
  0.4822875132405712  0.7308123586620429  0.2043561786827018
  0.5434187675055656  0.3042292438356193  0.7768556413548663
  0.8624339718502657  0.3940495317940690  0.9386559051165432
  0.8407129051276278  0.8981867411835160  0.0996270739833632
  0.9303908141668987  0.6864925934897484  0.6317542164000962
  0.7347357419662595  0.0946699305400084  0.4121718412716918
  0.5135641590360144  0.5538468819682377  0.6729629331754351
  0.8272286340660727  0.2369666447388076  0.6080462683172403
  0.7428247969367850  0.2499584556796460  0.3550430166236124
  0.5023030588832474  0.0971283690755939  0.7080206364427616
  0.3911196157133841  0.4556565503669234  0.5160731495200667
  0.7463072939905244  0.8180537938479842  0.2003798943371125
  0.1516926743994044  0.0764583754395278  0.6491851228041230
  0.7263378808164411  0.0357056116249568  0.7590600814102582
  0.4690706406189503  0.5313909340456774  0.4307455747385901
  0.8300552962325882  0.5997512894736742  0.6813678017888372
  0.3154166329036436  0.1469492718670651  0.9019223563157954
  0.0374868445001445  0.6609832494842623  0.8759611901696939
  0.3081294812752713  0.0410275313722228  0.5949406126365888
  0.9143722832829136  0.4537178187754209  0.3503402387996629
  0.5097858620800886  0.0486801992024130  0.0777859513600083
  0.8585153132752836  0.0988842098490740  0.9297617350497217
  0.0117903618995277  0.5156307768379201  0.0149391757805629
  0.7188890532006121  0.8309791666018903  0.4275848901412496
  0.2537781338315077  0.6025317660847512  0.7889231837750624
  0.6249022972731735  0.4953151843454309  0.2787092559176442
  0.6728981141372855  0.9018671459966507  0.6913408027264832
  0.7268774024255442  0.0482231778688829  0.0529574760072478
  0.2373320149518009  0.6576163224928094  0.2905650349118136
  0.9634614768134711  0.9018292419890842  0.2559920676292081
  0.4696758837425735  0.0117021431753343  0.9650252029295525
  0.2051555736714132  0.5471668580464980  0.2105186854927285
  0.6459658834163821  0.6611817411989565  0.4923674310847146
  0.7616843234355249  0.3631396630130203  0.4736889307285548
  0.7872959657919646  0.8522184171163005  0.0208593759798940
  0.9178829163646786  0.3730184878870486  0.4751296546240035
  0.6678428131169130  0.2284798365796366  0.3532486016211432
  0.8420591344383865  0.6806908914240166  0.3314784295665738
  0.7050522854860566  0.0116236235836794  0.5587033727528442
  0.8164704786859754  0.9270104562035769  0.2040574324605994
  0.0197896412082242  0.2817168115096263  0.0240981745522118
  0.3044647636249320  0.1895274832631292  0.5350162347133581
  0.6485592819845112  0.0351563187183851  0.3702462662804205
  0.5031044579003702  0.1286775494632571  0.0761965577542091
  0.7772259751878980  0.6115944868854999  0.4528892923803339
  0.0742934540717796  0.4880114961647379  0.1259544862754060
  0.4330053755706569  0.2329329204265697  0.8667338470615725
  0.6286426902215326  0.7601397085837628  0.2217167715600871
  0.9210275687347290  0.2126401154624389  0.0089360224085096
  0.7899291794940924  0.6758805861948485  0.9581793357029974
  0.6373998962273993  0.1679075469808476  0.0934597097269886
  0.8305043578572463  0.3303813368209552  0.7401343025285447
  0.9333167487341837  0.0427937738494600  0.0139494710871940
  0.7662517563473019  0.0434983092814199  0.3631813096431828
  0.7886357715944383  0.6703717111679645  0.5083677000939059
  0.5724759584713940  0.2116885204881624  0.6772965185335273
  0.8150672341033307  0.0120460215107880  0.8533119530432820
  0.4102502036443860  0.2437977007355152  0.9936464447215195
  0.8251194406142112  0.0441410018564966  0.7775568124080033
  0.6627089966522954  0.0556242770928311  0.6102279253129792
  0.7823866005094081  0.6779465138677649  0.6601260031058510
  0.3947857932519701  0.8809559190995434  0.6518938260003120
  0.6252804879593142  0.1208933855171810  0.2535849508013467
  0.9763076439941427  0.9655090364379029  0.4197993592089063
  0.2631669405797045  0.0909369299348615  0.5498928144674198
  0.0717525716653945  0.4584414862730082  0.5309316797467156
  0.7943176566502572  0.2221841614180960  0.6761989480063008
  0.4828220446862129  0.4270978979656021  0.1026191414882198
  0.3982440827042383  0.0866815149565198  0.5578997440882176
  0.7292245311181811  0.2196560729414358  0.7418089270645235
  0.9622017259737571  0.0436381433499507  0.2769578412598936
  0.0281168669924013  0.9631165184925076  0.8409231290351401
  0.5566243326291310  0.9103481942331034  0.3859228647936261
  0.0798298678996792  0.4433586906682570  0.9096204797573006
  0.9648091394690538  0.7482526614376933  0.7701252911037525
  0.4137791251443677  0.3887339459710366  0.3844160477757398
  0.7339612048928744  0.3997808407028914  0.5367314175991701
  0.0660187079521405  0.6552695123212446  0.4486472818304383
  0.8129233749414677  0.7966573531845477  0.9704721256079347
  0.2932306846764387  0.5728476725624044  0.5469571119205936
  0.1971481662690073  0.8687781683884391  0.2652759482276074
  0.2281331263927772  0.6686162884533913  0.6666865285387499
  0.4800284025374937  0.5510893919611892  0.2742931470584843
  0.9929433625419506  0.3457986857249849  0.1467478736475892
  0.4471272461880645  0.5404634228259670  0.8340748198136998
  0.0965985955384649  0.9688631694996309  0.8185817956116503
  0.0523632749474535  0.5973286182001309  0.2746032538654877
  0.0473695181704593  0.6326805818511291  0.7459892507001441
  0.5161128584803746  0.6162913986130403  0.0194925655627858
  0.7502371538898714  0.7564768224295874  0.8454744235459364
  0.5225368445470810  0.4656823727156742  0.9197129260969423
  0.3437117091178946  0.0665971024037374  0.1439256044175250
  0.7123559736667496  0.7971326397107997  0.9004811546387388
  0.0060821134186280  0.7936886306199256  0.6219238598158556
  0.8421916392043337  0.2580819640127917  0.3161979385498084
  0.6751665150382958  0.9784902565530976  0.2304325034680385
  0.6725363803731973  0.4269948829422365  0.8206025463791896
  0.6803442874108480  0.4547826347190780  0.5285047615255455
  0.1674279338767012  0.8449436081794678  0.3974637326212895
  0.1687736455907179  0.8188911326593963  0.3202812990624311
  0.4498839398924331  0.4353513894395417  0.9127521789370902
  0.9405425054259302  0.1302314545129523  0.6046976562874269
  0.0619243053756888  0.8951201264761027  0.0671488207155552
  0.8132843654897212  0.1188411409786487  0.7679509600926692
  0.6472957088919334  0.7270488198491193  0.0934113542467474
  0.3448282847357497  0.6289235196333357  0.5700180375325505
  0.2549602982467698  0.8285274568239506  0.4200263054726980
  0.9520303925819529  0.5655050717240836  0.0368871058187966
  0.8523337748312056  0.7102814990117348  0.5288972856599260
  0.3389357510776559  0.7502527083355535  0.7600285978164841
  0.7333158281141807  0.1465019222931688  0.1804858777551111
  0.5274914398218599  0.4360856070538975  0.5255468155905256
  0.7572996685322239  0.5818289050555694  0.8763127312594783
  0.0475250261300741  0.5065320631560368  0.6683431566341613
  0.2932097684593781  0.0821633731806329  0.9440347704592106
  0.6315880545742090  0.5061808936741696  0.8213866390847343
  0.7973059151739613  0.4025028952406813  0.8792236953363799
  0.3438137951214668  0.5904903423924581  0.1587114587529151
  0.8587424187996113  0.5566012929382570  0.5110949836859606
  0.3284177340424150  0.3236557112990758  0.8168563669646893
  0.7735271492394333  0.6609466195609837  0.1209196104187747
  0.7944602479168174  0.0847212433775241  0.8859445961290249
  0.3918106471790629  0.7957343852916161  0.9090279243897117
  0.0776590273486766  0.8726386437809381  0.9931085688046218
  0.5923882501999007  0.4778802964280043  0.5185150913184654
  0.5744728732453797  0.3448985451755459  0.3426940873797371
  0.8570622732317182  0.8716516531525368  0.3918973379974890
  0.8807747336964272  0.6963572972629185  0.4477500079706471
  0.2719943008516764  0.6499767538417047  0.1414342387661228
  0.8777250536926748  0.5121725935593426  0.2218201316479473
  0.1028612705897763  0.8414651457259736  0.9114448622839593
  0.4101481176408138  0.6829163981539992  0.5772651351361204
  0.8436453162900432  0.1962755910640065  0.4443707648310773
  0.6746867692170361  0.0534702418463037  0.2507749844476881
  0.0304411749774013  0.8132393478448802  0.8817828528892705
  0.4460441683696135  0.5813196960351508  0.3393957485924524
  0.0008565107834422  0.0042117879600038  0.0286182622927728
  0.5431420257808532  0.9256356130831845  0.2361111767697149
  0.9538910865108182  0.8251279345094642  0.9077948231463541
  0.6983126450370096  0.7561691841608918  0.7876423574577519
  0.9551913957003654  0.5698757117002171  0.8417634407098907
  0.6655536552593779  0.1589123924624945  0.3046388088473510
  0.5959727801703670  0.1382552790222770  0.6912468390102466
  0.5949766055177235  0.9132597953521490  0.2966681109984917
  0.7230472927085748  0.6937902828569190  0.4850566292667473
  0.4349394620631928  0.9977306280802448  0.7503187483711458
  0.1396600631234363  0.3993893517619951  0.6392935570872154
  0.3387848251763786  0.7049173387252242  0.6184689679216886
  0.5453476780306817  0.4020113375963352  0.3859893826108263
  0.8244124300080877  0.6026944241788468  0.8339245309545666
  0.6674418481741249  0.6115798349161886  0.1834635719965942
  0.3411448008855858  0.2809557054081101  0.6379503537266404
  0.0572187205847925  0.7367747546085929  0.6662289199319933
  0.3547646557501171  0.7863263876488321  0.1755677133279409
  0.1094359436669559  0.6966979024625647  0.4996791353790527
  0.1928195179875309  0.8051249173622863  0.5180716038125670
  0.9001308876332422  0.8657463786515633  0.3261400164000489
  0.8303212613276983  0.7493089834860973  0.0979706781429000
  0.7929954756804336  0.1691386707392166  0.3864220404002772
  0.6631860881312887  0.6151212583682457  0.7792443901342430
  0.2096130902699316  0.1403696749849810  0.5243480084492521
  0.5135166463094428  0.2392205794744652  0.1712067882445030
  0.3078369727574954  0.5561266965409944  0.3968175860833384
  0.6649581270284504  0.2153603119606422  0.1541710470454118
  0.5556811386481281  0.7984363464584480  0.2026409427100445
  0.0434565498417111  0.7564130651283443  0.5508644629975201
  0.8628694963293646  0.5975142098114093  0.2295030589799765
  0.5661481126815827  0.0973884614384393  0.4656793467654903
  0.7449538448688006  0.8974192115737147  0.2212219490747532
  0.5683071546812104  0.9930588795173917  0.2750876447857140
  0.8473973883443754  0.3953007887385299  0.1441220124735398
  0.3664821435121981  0.5676002502487776  0.6223405915517071
  0.0138632165762779  0.7442601059740099  0.3995693957979365
  0.0136551194605067  0.4328262870979314  0.5803224596456005
  0.2223440722679456  0.1245641948830222  0.3985248855726187
  0.2046801278846253  0.2030431153785638  0.6375149885080776
  0.0907281858231628  0.3012270234715930  0.0595830096001828
  0.6595375354253525  0.8104983678467297  0.9608492855020945
  0.6592936544579001  0.6502714389201393  0.9740691840738992
  0.4599458612960092  0.1283206333303829  0.1884025597388457
  0.2654944005961460  0.8170372869335787  0.9487266920232897
  0.9540814559381766  0.2871805892614012  0.9147418739001107
  0.0007747939535790  0.2446458958067975  0.8733384876629418
  0.5071974536754205  0.6101117712953943  0.5388709767265613
  0.5494578739436196  0.3114207329687044  0.1368991755582866
  0.2955021911579010  0.5438688377802852  0.6584333290424595
  0.2211271359689913  0.7361272012692406  0.7996171040723089
  0.2183054108790918  0.4068933100667008  0.8420643900360744
  0.9739052518955159  0.6630176966578973  0.3242820033568728
  0.5950511394485687  0.3219487303308676  0.2661518811755753
  0.8787582829633596  0.0034438971108097  0.8052473887144657
  0.9447039832314581  0.5070767341891369  0.6276309611232072
  0.1023735152907271  0.9735015795236159  0.9645529423534844
  0.1707789215428433  0.1215455043252319  0.4600854796992308
  0.6031005916324771  0.8014660127215107  0.6089346766738611
  0.9088133473608822  0.3463915596136459  0.9829552849402303
  0.5778339606838462  0.4273897694412341  0.7416603900712863
  0.2711191642063884  0.4805111743089374  0.6950398410223293
  0.1134294414221439  0.5345794361499716  0.0766843993193819
  0.0751607736790926  0.9870043248073463  0.6240071468871955
  0.7260987776650686  0.4141563602672926  0.9724059732096667
  0.6744113015766114  0.3597947670623799  0.7211230538258477
  0.0131758273658781  0.0796975157584124  0.0451876786886895
  0.0909713832974816  0.7652558471288852  0.7690801703797132
  0.0608009545491982  0.1447667654818009  0.9627011670146348
  0.1381463979025023  0.9725802042360443  0.2864634921546648
  0.0397549202442273  0.3650921175540409  0.0568782680098266
  0.1656540103965300  0.7896460673479402  0.0656541340418271
  0.5315417006864185  0.8574597344427143  0.8329862740501796
  0.3050332706515859  0.4727220600145342  0.3879474909008747
  0.5357781902043997  0.8370811278648166  0.4030786751651456
  0.9591311828397893  0.2416959128985774  0.8011738758116519
  0.1811531130423701  0.1650246393017037  0.1273795097363479
  0.6029613979240183  0.5752701845754119  0.8793442024752823
  0.1628827443531180  0.3506583351768886  0.9718702207665822
  0.6915278807694311  0.2876509121676147  0.9447367909018729
  0.4665660032562152  0.0378981182447104  0.4079733619349679
  0.7085788977082663  0.8890293665375414  0.2874369190940839
  0.6857941829525687  0.1890164825616806  0.0155212647448020
  0.1819229652016546  0.5379459915335072  0.9007236553482126
  0.3541612972095032  0.7845214879944100  0.0497957097654337
  0.6558685973708094  0.9141327554367784  0.8011944735076405
  0.9188068398208261  0.3777096927787156  0.3538297433169860
  0.5153173521030836  0.8317172330125326  0.6151779551190596
  0.4170168918411294  0.0382111116489286  0.9147232935042447
  0.3761447191217689  0.1627263637784831  0.6955153398959626
  0.7834856043814585  0.8958048406071871  0.5218855220417102
  0.2939432428578993  0.3425583708596474  0.3569476664604120
  0.2924391332691250  0.9044121293618378  0.6498114944921881
  0.9208267942856857  0.2960625758972192  0.7598091367978842
  0.8109548085428890  0.0158539832299887  0.0296653206866665
  0.4169732279108442  0.1008334791793747  0.2517798387995434
  0.7275372188261680  0.8581443424001078  0.6392946719109672
  0.1810366006885790  0.0581063260028777  0.8327937811490079
  0.8273246150824319  0.4905677870279804  0.7904868037174533
  0.2895185073863731  0.2895745405516204  0.6963855394646348
  0.1982349468949202  0.8047737478804190  0.2181179346848041
  0.6030150687246483  0.7149182633435146  0.6787662809333722
  0.0797898205107324  0.0571130976701501  0.3909239641449152
  0.7318765375635560  0.9047541148194626  0.0030433247203585
  0.1986300059261651  0.6826454959822731  0.9788198196889148
  0.4708575438328050  0.9955434500525915  0.8180863891710176
  0.7106871355969121  0.6080251397527984  0.6641567280113277
  0.5812596017262356  0.7310534260266928  0.6050742543682076
  0.0216087050965662  0.5838864980937689  0.0608708699244997
  0.2399818448365174  0.0544542662472221  0.3633218039793523
  0.2834972381283505  0.4394202837868116  0.2387350206436416
  0.3956561255377556  0.9922399618413096  0.5980970502863027
  0.6452929014781161  0.6882285333320850  0.1924417918112867
  0.2211036450399322  0.3271937106496091  0.4740808178207911
  0.8735115507787222  0.2457856172892172  0.7895566160135566
  0.2070446425191082  0.0320750719492274  0.9527580008840649
  0.6464797109923446  0.8031506175844116  0.0909521791311830
  0.9059549392608587  0.3762136523904318  0.7853937048632048
  0.9330415465279858  0.1327574726026446  0.1560132932955245
  0.0068168494592077  0.6289019132872858  0.4028754587212170
  0.5534410330356793  0.1558250075268453  0.6276654144858270
  0.2274548623134007  0.0212722655553146  0.6084656013085130
  0.8235340019783891  0.8165626374494707  0.8233461276327614
  0.1502833381012580  0.8947279208627944  0.6099987494016837
  0.4247951233322396  0.4069994306705182  0.2972047924613694
  0.9948658495587815  0.4596928493911598  0.3017040618637409
  0.3829831541899775  0.4473742061925462  0.4331738466743160
  0.1582801812214429  0.2386842430760822  0.0428430981646286
  0.8162211297734538  0.1882806192551195  0.8019837156371823
  0.5100385554638660  0.8194017750246388  0.1080657589172413
  0.3269543686074325  0.2204667621564915  0.3536513449732498
  0.1402681065781507  0.8716428938230570  0.8507057074585824
  0.4015860323349628  0.0125047391349228  0.1248344865560270
  0.6995265288423574  0.0385324065085855  0.6926836344791409
  0.4145807365088718  0.2141712064403530  0.6248982626729283
  0.1147040698502620  0.0499194850632517  0.1599305583408166
  0.1342142818122287  0.5126907742566224  0.8272367563534084
  0.2658772629246760  0.3480514260066226  0.8676357394769075
  0.0372061511233826  0.6743423417645260  0.2707628983873695
  0.4121254964557175  0.6396644217887004  0.7490622358289970
  0.8530090395038209  0.8667290161586475  0.4693389946221005
  0.3850078864709168  0.5178501785806897  0.4644613221862068
  0.1210108136190541  0.0407972804523092  0.5792086976305479
  0.7479654616044504  0.8192205365346775  0.7883996943932498
  0.4774687672029953  0.4647798432581952  0.8479915894041699
  0.0281181078974109  0.3112493420885520  0.2660967239432760
  0.6880998508190017  0.4073552187079292  0.4665359561017577
  0.5423564997304845  0.1683027121857832  0.1380471387734440
  0.3397660293386388  0.1077234748461115  0.4207373241356440
  0.5351244787909890  0.1161534469014996  0.7776814603208414
  0.3040052438917435  0.4975569887369303  0.5098706948589281
  0.3928176780915766  0.0398165175744509  0.2903775056306804
  0.0123042118715031  0.5650000034776008  0.7859409771517262
  0.9317802030829119  0.6757408085310909  0.7695341690809873
  0.5881141221085797  0.4898428330681349  0.8860681292181112
  0.4713078795417512  0.9146992982501549  0.5224202658347333
  0.5830044070717426  0.4152810316290608  0.9168758589087421
  0.8687122345265377  0.1561425730356177  0.1960571785106019
  0.5783319152930546  0.9090787815875392  0.9824626390155551
  0.5507001061243741  0.5132280131313760  0.8180388764444461
  0.5942247896141403  0.5709127632237658  0.5830573346565379
  0.7962753402455430  0.6146227198037386  0.0367726505802622
  0.2931357653969862  0.1905537714287870  0.9548250964675787
  0.8232276908808270  0.3378085846341570  0.3482486170936060
  0.8151881128501502  0.7124087950778544  0.7233273789045432
