Si O  Ti Ge O 
 1.0000000000000000
    16.0000000000000000    0.0000000000000000    0.0000000000000000
     0.0000000000000000   16.0000000000000000    0.0000000000000000
     0.0000000000000000    0.0000000000000000   27.1357298388864834
 Si  O   Ti  Ge  O  
  80 160  35  45 160
Direct
  0.6725462079048157  0.2191749364137650  0.0687724693545414
  0.0454095490276814  0.8144664764404297  0.4163886633556672
  0.5506700873374939  0.7619673013687134  0.1888086592869603
  0.8490555286407471  0.8677999973297119  0.0376940134887512
  0.7787059545516968  0.0040327650494874  0.2571122206289434
  0.1084466576576233  0.9343502521514893  0.2713796270635557
  0.3266340494155884  0.5906729102134705  0.0792339266942118
  0.1244173645973206  0.6296651959419250  0.3294199817431411
  0.4775640368461609  0.2418582439422607  0.4455921724908848
  0.8533098101615906  0.7608377933502197  0.2797679045676800
  0.7418547868728638  0.3970388174057007  0.0874870292883095
  0.6930880546569824  0.5463495254516602  0.2573861200533938
  0.4661670327186584  0.8491008281707764  0.4386807412835789
  0.4752217829227448  0.5957249402999878  0.1596515761656899
  0.6233196854591370  0.3673787415027618  0.2331793117099827
  0.8344042301177979  0.1965728998184204  0.2170467111707408
  0.1532923579216003  0.8015170097351074  0.3240699195908242
  0.2012201696634293  0.8409152030944824  0.0036713694465438
  0.2743742167949677  0.2483167201280594  0.1880673718538148
  0.9509677886962891  0.3006831705570221  0.9732654673515531
  0.3825064003467560  0.3354036211967468  0.1251107799395253
  0.4564267396926880  0.3662924766540527  0.2914704406685397
  0.1956873387098312  0.0718528553843498  0.2039834289525292
  0.1156073957681656  0.5550229549407959  0.4280764211530712
  0.3806607723236084  0.0341175496578217  0.2332911066761952
  0.3108316957950592  0.7332867980003357  0.4043820386206819
  0.8144425153732300  0.5060519576072693  0.3453093113750826
  0.5684107542037964  0.6407185792922974  0.3264103038049031
  0.3717429637908936  0.6758862733840942  0.3116441252355888
  0.0257483050227165  0.1950348764657974  0.2187934855524365
  0.0526986606419086  0.0597413517534733  0.0739777972661779
  0.8770706057548523  0.8401696681976318  0.3829244691720893
  0.1305721700191498  0.9858006834983826  0.4334279593785037
  0.8390045762062073  0.5369659662246704  0.0261583812802928
  0.8821597695350647  0.8161562681198120  0.1608209599469756
  0.5485923290252686  0.4002490043640137  0.3891784503847596
  0.0250788759440184  0.5677489638328552  0.0229196198696563
  0.7813308238983154  0.5742558836936951  0.4464883597396800
  0.0958927795290947  0.9472302198410034  0.1504936671101395
  0.2400691807270050  0.4018346071243286  0.4356743669375522
  0.5577151179313660  0.2604422867298126  0.1566555694760708
  0.0165430475026369  0.2425050437450409  0.1146806891535628
  0.3603765070438385  0.4712067842483521  0.2154811599085907
  0.7923509478569031  0.6328582763671875  0.1703519991994067
  0.3879578113555908  0.8820345997810364  0.3084653666364115
  0.0692037343978882  0.3430238664150238  0.2908660238722739
  0.6445859670639038  0.8312507271766663  0.0969664674847389
  0.4700599610805511  0.8486328125000000  0.0471887176199334
  0.7385308742523193  0.3407147228717804  0.3913639172108900
  0.1042924672365189  0.3323325216770172  0.0332069225470523
  0.9363544583320618  0.1558797210454941  0.3896235918629258
  0.2313343286514282  0.5832537412643433  0.2549077405752994
  0.3259741067886353  0.9696205854415894  0.4068288406774805
  0.2027727961540222  0.2775051295757294  0.3401440746636054
  0.9522484540939331  0.5270635485649109  0.1820809816102553
  0.1281019300222397  0.3718648850917816  0.1887973954433039
  0.6786221861839294  0.8414220809936523  0.2667934327485941
  0.9358433485031128  0.9997379183769226  0.3217884377229797
  0.7055496573448181  0.6503193974494934  0.0737069905663508
  0.5589219927787781  0.0862789824604988  0.2070553831184089
  0.5935824513435364  0.0810239240527153  0.4270057058306479
  0.6300547122955322  0.0775998011231422  0.3123148950328635
  0.0944694504141808  0.6538593173027039  0.1831071687270227
  0.1896812617778778  0.7866699695587158  0.1212655216117294
  0.5925927758216858  0.5573383569717407  0.4243763978764771
  0.9420185685157776  0.5873536467552185  0.2906330327598862
  0.4259867966175079  0.4452843070030212  0.0311841905853863
  0.7462911009788513  0.1093924269080162  0.1487622157731684
  0.9640791416168213  0.4661566615104675  0.4593521260750912
  0.8083429336547852  0.9444628953933716  0.1141206687707103
  0.1171734631061554  0.1644211262464523  0.3990359829525361
  0.5853032469749451  0.5092029571533203  0.0781235331206556
  0.7176459431648254  0.2400489002466202  0.3006485754402345
  0.1579642295837402  0.4866570830345154  0.0906278317216555
  0.5577912330627441  0.1381799131631851  0.9910482122003117
  0.8811815381050110  0.3528412878513336  0.1566174903041466
  0.0149088446050882  0.8120657801628113  0.2164987365988501
  0.5669068694114685  0.8373168110847473  0.3478219392639202
  0.3833822011947632  0.7663010954856873  0.1354039385855617
  0.3507012128829956  0.2124724537134171  0.2764451234059317
  0.7857769131660461  0.8213610053062439  0.4119315200045320
  0.6444185376167297  0.0697566494345665  0.1701968357992722
  0.1790823489427567  0.6292153596878052  0.2125636135339887
  0.3017831742763519  0.6703322529792786  0.0489340730384851
  0.8862923979759216  0.7932709455490112  0.3311690932406032
  0.9370385408401489  0.5310572981834412  0.0423362107206130
  0.6832793951034546  0.5460496544837952  0.4558883799307970
  0.5490885376930237  0.8674843907356262  0.4050399454950915
  0.7334484457969666  0.2572357952594757  0.3606530914123948
  0.1780729442834854  0.7948852777481079  0.0597191110849423
  0.6300377249717712  0.3253347873687744  0.1767735498553027
  0.9295703768730164  0.1628625690937042  0.2066534694957728
  0.1076544076204300  0.2415825128555298  0.3543456904107768
  0.7568266391754150  0.7721545100212097  0.2685180308889569
  0.0316789709031582  0.2538503110408783  0.2681245343975399
  0.4002496302127838  0.9302334189414978  0.4442164372024893
  0.0259302780032158  0.6264731884002686  0.3151486391135536
  0.9994633793830872  0.3824689388275146  0.3265199900952360
  0.7919616103172302  0.3866602480411530  0.1369775994636984
  0.7511765956878662  0.6000680327415466  0.2211206553976705
  0.3189509212970734  0.0328912883996964  0.0320745526170643
  0.5773060321807861  0.0156265031546354  0.4745814401567436
  0.1730924844741821  0.7126299738883972  0.3027827662978946
  0.5111378431320190  0.2173256576061249  0.9606029389842439
  0.1707229316234589  0.9313727021217346  0.0153805401885432
  0.9849086403846741  0.8186389803886414  0.1563679988030016
  0.8499646782875061  0.8290266990661621  0.0967839879458151
  0.2246834486722946  0.1841979175806046  0.3851400900632969
  0.1606418341398239  0.0326828435063362  0.1520033736060804
  0.9090906381607056  0.2466081678867340  0.3647714056942893
  0.7879434823989868  0.0771519392728806  0.2172014704079984
  0.8999842405319214  0.9403336644172668  0.3677754956414466
  0.8675569891929626  0.5718876123428345  0.1537182366927994
  0.3737967014312744  0.2343065589666367  0.4452559441218958
  0.1775289922952652  0.5520780682563782  0.2997030100312607
  0.5273831486701965  0.3472868800163269  0.2479865215974526
  0.5257323384284973  0.5391398668289185  0.1230566924068384
  0.2332309484481812  0.9566569924354553  0.4314483696074103
  0.5960299968719482  0.7984372973442078  0.2394144378458303
  0.5903508663177490  0.2261666208505630  0.1024741531590498
  0.6520661115646362  0.8726459741592407  0.3221655744040315
  0.8430249094963074  0.9601882100105286  0.0557673821975297
  0.1423915773630142  0.6266877055168152  0.3872054326534907
  0.7275941967964172  0.3031291067600250  0.0625545245340371
  0.5640028119087219  0.8657755255699158  0.0681158232925847
  0.4711135923862457  0.3009434044361115  0.1417254677155725
  0.3189351856708527  0.6309038400650024  0.2685833295520260
  0.4672053754329681  0.6376726627349854  0.3111566696614402
  0.1650051772594452  0.4140932857990265  0.0459942933125785
  0.9447311758995056  0.8056074976921082  0.4231356881335666
  0.5320611000061035  0.4733219444751740  0.4300612826138634
  0.5211495757102966  0.1518419831991196  0.4333083271669391
  0.4484710097312927  0.7900749444961548  0.1807409356611207
  0.3586467206478119  0.2468243241310120  0.2212754497795261
  0.1740343868732452  0.0036665527150035  0.2510396031142106
  0.8393588066101074  0.9087555408477783  0.1712791136944347
  0.0595693625509739  0.2669932544231415  0.1743054677444199
  0.8635291457176208  0.3049947321414948  0.2080026354680864
  0.4180659651756287  0.2772828042507172  0.3084678619028690
  0.4057252407073975  0.8325963020324707  0.0931028636767912
  0.6246864199638367  0.6169455051422119  0.2782892131794671
  0.0811903327703476  0.1105828583240509  0.2184685913162997
  0.1581732779741287  0.8020429015159607  0.9536321485509296
  0.5264902114868164  0.4553537964820862  0.0395839362111429
  0.9507078528404236  0.4303709268569946  0.1669125731169230
  0.5789535045623779  0.7338072061538696  0.3446882008947706
  0.7127193212509155  0.6320499181747437  0.1313419698803978
  0.1926467418670654  0.3493021428585052  0.4777751352100675
  0.9099503755569458  0.5172216892242432  0.3341794389262030
  0.0913679301738739  0.5549376010894775  0.0705747326633916
  0.2645555436611176  0.4942797124385834  0.2224881668501358
  0.0814850926399231  0.4076340496540070  0.2356808514781538
  0.3611970543861389  0.4112525880336761  0.1648799150028617
  0.3779977858066559  0.1121279746294022  0.2752640013289167
  0.6355994343757629  0.1804074645042419  0.3011511080469216
  0.3377768993377686  0.9236217737197876  0.3528899660173516
  0.7147344946861267  0.1384737491607666  0.0878017228048791
  0.1341520100831985  0.4336813092231750  0.1427307613688337
  0.5435156226158142  0.1871752142906189  0.1994256314727452
  0.0366061329841614  0.5750107169151306  0.1635053746307979
  0.6119419336318970  0.7929919362068176  0.1482090925176718
  0.2838730812072754  0.7699955701828003  0.1428999035328195
  0.1220580711960793  0.0619204528629780  0.3939026926806336
  0.7195663452148438  0.9259120821952820  0.2383445659937589
  0.8667213916778564  0.5227844119071960  0.4789536390145320
  0.6447310447692871  0.4669319689273834  0.2334456901904628
  0.3377578556537628  0.0728088915348053  0.4018988619049616
  0.8036257028579712  0.2059243172407150  0.2749617226415878
  0.6307170987129211  0.5881670117378235  0.0523937863401597
  0.0211471058428288  0.1754728257656097  0.4211765525185045
  0.1579728722572327  0.8686486482620239  0.1466582141251833
  0.2314916849136353  0.7895648479461670  0.3805071182884080
  0.9455267786979675  0.0934883654117584  0.3416070036996190
  0.5045413374900818  0.4162006974220276  0.3369887223666908
  0.0155796697363257  0.3598028421401978  0.0058193303970046
  0.0517321713268757  0.9266105294227600  0.2070716023503822
  0.7870560288429260  0.0008934030192904  0.5049861916513267
  0.7673334479331970  0.1983301788568497  0.1693782829674413
  0.0162976589053869  0.1413641721010208  0.1061635979116484
  0.3111161887645721  0.2647424042224884  0.1310325480535270
  0.2996612489223480  0.0398697331547737  0.2007180740638997
  0.6908393502235413  0.3268876373767853  0.2719821109069320
  0.1792410761117935  0.4753059148788452  0.4194131371696597
  0.4672282636165619  0.0418619252741337  0.1960259363582914
  0.3859647810459137  0.3732986450195312  0.0685593217607949
  0.4279642999172211  0.5443641543388367  0.2009606772238382
  0.9136065244674683  0.8133494257926941  0.2349430257879105
  0.8201997280120850  0.3994377851486206  0.3640076784353259
  0.6540529131889343  0.3968064486980438  0.3849520313194418
  0.8271947503089905  0.7294314503669739  0.1723328366037289
  0.0348190777003765  0.7034239768981934  0.2215966011159767
  0.2123640924692154  0.3259722292423248  0.2036656163528879
  0.0151383792981505  0.4439792931079865  0.5099106527219609
  0.3642066717147827  0.7813841700553894  0.2984768501519190
  0.3774278163909912  0.9400305747985840  0.2603524471300087
  0.9507946968078613  0.5386266112327576  0.2409478845177147
  0.1618515402078629  0.3575133979320526  0.3100520398019548
  0.4610221683979034  0.7579966783523560  0.0208589559040702
  0.7919498085975647  0.5683389306068420  0.3896820021847885
  0.5911118984222412  0.0469462759792805  0.3675325761801261
  0.1306677609682083  0.7055413126945496  0.1342428049986547
  0.3995285630226135  0.6504322886466980  0.1254480362880057
  0.0803541094064713  0.8298414349555969  0.2635436820614731
  0.5755095481872559  0.0514801852405071  0.2633617560499677
  0.1804544180631638  0.8924391865730286  0.3133927798532770
  0.7954390048980713  0.6255919337272644  0.0459453324945009
  0.4884160161018372  0.8750055432319641  0.3187165538462960
  0.3279210031032562  0.6597295403480530  0.3641176107378448
  0.5140709280967712  0.3059058189392090  0.4057923210489035
  0.0701509565114975  0.7795283198356628  0.3615598923297835
  0.0140597224235535  0.5298569202423096  0.4224128340420679
  0.0854413285851479  0.2842391431331635  0.0828158992661509
  0.3893835544586182  0.4265720546245575  0.2657514832796273
  0.1519803702831268  0.2603637874126434  0.9981110111911691
  0.0339959189295769  0.9739354848861694  0.1061073841271602
  0.0301996823400259  0.9774811863899231  0.3024617203952380
  0.8271321058273315  0.5361881256103516  0.9655842640144291
  0.6050916910171509  0.5704152584075928  0.3645534388975432
  0.8575907945632935  0.3383548259735107  0.9545133642009800
  0.2186474353075027  0.1660790443420410  0.2006986918181071
  0.8098683953285217  0.0443986840546131  0.1280163420062121
  0.9481577873229980  0.3824827671051025  0.4295935080145903
  0.7943137884140015  0.4539234042167664  0.0476590138441124
  0.8744255900382996  0.6620005369186401  0.2788241842501008
  0.3030970096588135  0.8202856183052063  0.9988259226035217
  0.3839031457901001  0.5330009460449219  0.0476379139060930
  0.6381982564926147  0.2038040161132812  0.0067696524076629
  0.7474499940872192  0.5097884535789490  0.3024559566811673
  0.5432677865028381  0.6606535315513611  0.1855970932055575
  0.7228716611862183  0.0385714396834373  0.3060557475642884
  0.8719506263732910  0.9839435815811157  0.2757581519489827
  0.0720447897911072  0.9133766293525696  0.4158770634426980
  0.6561312675476074  0.4446323812007904  0.0992941469266438
  0.4095169305801392  0.7751576900482178  0.4080117024120962
  0.9265935420989990  0.2887882590293884  0.1148441554649729
  0.6867419481277466  0.7520940303802490  0.0667859253461203
  0.2569987177848816  0.3421889841556549  0.3865478069358650
  0.8685560822486877  0.1147113591432571  0.4275450699760306
  0.2472447305917740  0.5402884483337402  0.1018580419978022
  0.2581721246242523  0.2290202975273132  0.2983616110151033
  0.2216944098472595  0.2295032739639282  0.9489738726654864
  0.7471448183059692  0.7937402725219727  0.9388620689312380
  0.8543607592582703  0.3539789617061615  0.8852563650600729
  0.6192174553871155  0.3837771117687225  0.7786882440393875
  0.8200241923332214  0.1893984377384186  0.7894298389696520
  0.5204347968101501  0.5729433298110962  0.8267379384140028
  0.5520427227020264  0.0350651964545250  0.5416526210255403
  0.2771475613117218  0.0584308877587318  0.8976410402356576
  0.6382352113723755  0.9964790344238281  0.9099430553167652
  0.7845360040664673  0.1023943945765495  0.4730649156087923
  0.3375472128391266  0.6882715821266174  0.5202219020498137
  0.3572147190570831  0.4875545799732208  0.5260173868370808
  0.6098262071609497  0.1715693175792694  0.8281785857748895
  0.9153591990470886  0.1224199905991554  0.6153798021634376
  0.9936726689338684  0.1281587183475494  0.7890568844957613
  0.0082063144072890  0.5937519073486328  0.7459761442528379
  0.1167688816785812  0.9195327162742615  0.6450727701148894
  0.2090269178152084  0.4418638646602631  0.6067743661883208
  0.3045930564403534  0.8690028190612793  0.5983365699456258
  0.4523324966430664  0.4692255854606628  0.7174432994811007
  0.5996076464653015  0.9123023152351379  0.6505010641423364
  0.3720933198928833  0.6161435246467590  0.6655295971356607
  0.1314671337604523  0.9762014746665955  0.8205962793365149
  0.8524712920188904  0.0403387770056725  0.8847963222723580
  0.8384287953376770  0.8295134305953979  0.6431339129328687
  0.4074153006076813  0.6816036701202393  0.8908768297493400
  0.2899205088615417  0.1553367823362350  0.4412007846825928
  0.9468584060668945  0.7411843538284302  0.9684295706678586
  0.5158908367156982  0.5724158287048340  0.5897738698016673
  0.4667492508888245  0.0428214184939861  0.8736338356365420
  0.2622450888156891  0.4216681122779846  0.7293861367707305
  0.8820715546607971  0.6071507930755615  0.5343974405052750
  0.1571455746889114  0.2768416702747345  0.5224544626372533
  0.5167401432991028  0.2419132441282272  0.5618371477010700
  0.1633521914482117  0.6471546888351440  0.6087519527173287
  0.1907915920019150  0.6638711094856262  0.8039435738915899
  0.9157725572586060  0.5518037676811218  0.8591069566349550
  0.0210725497454405  0.9892702102661133  0.5361188229149215
  0.3559328019618988  0.3771903812885284  0.9235367749524696
  0.3646197319030762  0.7348284125328064  0.7704827535894193
  0.1217602342367172  0.2656141221523285  0.7083909647979182
  0.9777063727378845  0.8651937246322632  0.8685106670088611
  0.0367836058139801  0.4771890342235565  0.5701409727362197
  0.6036335825920105  0.2628770768642426  0.9451800133122537
  0.3816171288490295  0.2589083611965179  0.7192442492606010
  0.9738824963569641  0.4085267484188080  0.6808217146139248
  0.9306036829948425  0.3500197529792786  0.3708741597018002
  0.2208250761032104  0.0262937210500240  0.0026334182247329
  0.6573097109794617  0.4392452538013458  0.8963451886184979
  0.0782954692840576  0.6886281371116638  0.5033515109649265
  0.7767730951309204  0.9486026167869568  0.7276829592628439
  0.8421794772148132  0.9157616496086121  0.5313983059464347
  0.4163920581340790  0.0269769001752138  0.0021332661154254
  0.0894026681780815  0.5626912117004395  0.9171336400659214
  0.3607943356037140  0.7260767817497253  0.0043591689980829
  0.9617158174514771  0.3040462434291840  0.5666283404561187
  0.5406311154365540  0.1404101401567459  0.7081630169353423
  0.3347502648830414  0.0415022410452366  0.5486099862224219
  0.9680074453353882  0.1162833720445633  0.9759358241961787
  0.7692537307739258  0.4164532124996185  0.6923832330153418
  0.7671098113059998  0.6073585748672485  0.9276983170898941
  0.8115835189819336  0.8249243497848511  0.8188368704718411
  0.7828560471534729  0.2985872924327850  0.5101620771759955
  0.3309661448001862  0.9389300346374512  0.7892913692535635
  0.3837319612503052  0.2283756583929062  0.8446397531607582
  0.0107528455555439  0.7515032291412354  0.6724473895152033
  0.0894978269934654  0.1101109236478806  0.6801548107224293
  0.7442998886108398  0.1364480406045914  0.6904637756514126
  0.6541520357131958  0.3776183426380157  0.5973634160272283
  0.7598555684089661  0.7661870121955872  0.4673250647201465
  0.2284835278987885  0.4895434975624084  0.8493212244808760
  0.1965797841548920  0.7316089868545532  0.9063476926529912
  0.3167318701744080  0.2010407596826553  0.6066300624689659
  0.4252649247646332  0.9772205948829651  0.6867619248557228
  0.5561190247535706  0.8345466852188110  0.8805829769974932
  0.6500852108001709  0.7297848463058472  0.6665499151045635
  0.7140114903450012  0.5637108683586121  0.6180006051248944
  0.6477966904640198  0.7305684685707092  0.7900509845945618
  0.5486305356025696  0.7042499184608459  0.4921088243564926
  0.0568684190511703  0.2166718691587448  0.8931953891680660
  0.0077106826938689  0.6646835207939148  0.0049314488051568
  0.3881231546401978  0.8432950377464294  0.7867904093712592
  0.6413957476615906  0.2131715863943100  0.8952280824267252
  0.5975601673126221  0.9695085883140564  0.5910828654984761
  0.9674928784370422  0.6771211624145508  0.5143013727828912
  0.2101472765207291  0.8557621240615845  0.6331096192476203
  0.6393573284149170  0.8698196411132812  0.9236005272532269
  0.1454553455114365  0.0822593569755554  0.0480543905715220
  0.2547636032104492  0.7263900041580200  0.7673792747191408
  0.9898560047149658  0.7906924486160278  0.9140576442712726
  0.1248410195112228  0.4903893768787384  0.8729998270887669
  0.5636383891105652  0.1176003739237785  0.7687796463707287
  0.9395247697830200  0.5664569735527039  0.7964435761017125
  0.2574069201946259  0.5927625298500061  0.8350196926416137
  0.6897305250167847  0.1176454499363899  0.4375026240696922
  0.3034033775329590  0.1027035638689995  0.5003282672118636
  0.7027601599693298  0.9106963276863098  0.1080992393629528
  0.3796457052230835  0.9176948070526123  0.6398302504324279
  0.3258087933063507  0.7725521326065063  0.5655022021026621
  0.7672337889671326  0.3239768743515015  0.4476473231476611
  0.2639014422893524  0.6281865835189819  0.6382901438592240
  0.5996983647346497  0.4561949968338013  0.8390599859159659
  0.5772637128829956  0.1440069824457169  0.5562272263912005
  0.4543067514896393  0.9267084598541260  0.0076670955267019
  0.7704575061798096  0.9181790351867676  0.7914697720154975
  0.6109409928321838  0.6342794299125671  0.8135188601928929
  0.8044747710227966  0.1170380264520645  0.6356540178530427
  0.0915646776556969  0.6811854839324951  0.6529058684045347
  0.0704455003142357  0.9445027112960815  0.5857622193746784
  0.0035961994435638  0.5092350244522095  0.6975144146113649
  0.8053881525993347  0.6632787585258484  0.4729124934873011
  0.8861984014511108  0.0982851162552834  0.8283275285811794
  0.7204801440238953  0.4098108708858490  0.7508265908001009
  0.9224457144737244  0.8229991197586060  0.8173972774488942
  0.6099426746368408  0.3709694743156433  0.9413995089062581
  0.5932062864303589  0.8026691675186157  0.6330113549516350
  0.8414945006370544  0.7056826353073120  0.9505886966540212
  0.3571896255016327  0.2244785279035568  0.7798098487397030
  0.4712927043437958  0.5784012079238892  0.8842858821311227
  0.0975476205348969  0.0147092025727034  0.4906474065381927
  0.5990927219390869  0.2811712324619293  0.8033714198362807
  0.2843558788299561  0.9462997913360596  0.5508256071136294
  0.9713542461395264  0.6960295438766479  0.7232005469457525
  0.2376836538314819  0.4402627348899841  0.7926126743421962
  0.9306768178939819  0.2335120588541031  0.6092443285351962
  0.5782189369201660  0.6407269835472107  0.5449968755366619
  0.6985042095184326  0.3402588367462158  0.5411120268192280
  0.0912744402885437  0.1680138558149338  0.7375923301126585
  0.1582756191492081  0.2603319585323334  0.8980031701733668
  0.9837485551834106  0.2877650856971741  0.9149749182788629
  0.3070799708366394  0.1721469312906265  0.8801341101919399
  0.5166888236999512  0.9367721676826477  0.8813229816528121
  0.3371919989585876  0.5245218873023987  0.7110198510169132
  0.9874136447906494  0.3969267010688782  0.6114192168373310
  0.3022639155387878  0.0935773700475693  0.6039633606625316
  0.8292481899261475  0.9137828350067139  0.5953804875193256
  0.7934713363647461  0.8308027982711792  0.8838999241559750
  0.1263175904750824  0.5355297923088074  0.5926068055566037
  0.9239800572395325  0.9548408389091492  0.8882288951582333
  0.7586455941200256  0.7381967306137085  0.7936939330440170
  0.5202305316925049  0.9265587329864502  0.6980957765513478
  0.2327698767185211  0.1159549728035927  0.9603152453050816
  0.7928228974342346  0.1892451941967010  0.5162947392363975
  0.9896865487098694  0.0441315323114395  0.0228364765369568
  0.3743093609809875  0.3713962733745575  0.7218169041228089
  0.8758552074432373  0.3458550870418549  0.5323173723285225
  0.7699764966964722  0.5220696926116943  0.6690593799795819
  0.9190474152565002  0.4423061311244965  0.8695147481734916
  0.0811045169830322  0.8966246247291565  0.8562312147596643
  0.3962536156177521  0.6989958286285400  0.7111036357385261
  0.3084270656108856  0.2957222759723663  0.9576980973818159
  0.4313660264015198  0.6453256011009216  0.6064702248372984
  0.2958454787731171  0.5848845839500427  0.5333437000236819
  0.6939778923988342  0.6973400712013245  0.9335481354256568
  0.5500442981719971  0.4062327742576599  0.7261921254160246
  0.2130524963140488  0.3091660141944885  0.7320929737080717
  0.9291528463363647  0.7642722725868225  0.6284598483548913
  0.7714482545852661  0.8516235351562500  0.9963193395855386
  0.0457807555794716  0.0285816621035337  0.7865379305792850
  0.1720921993255615  0.1880921870470047  0.4668374685676059
  0.1687702834606171  0.6351714134216309  0.9323798586992079
  0.4676238894462585  0.0778254568576813  0.6715795288123897
  0.7857807874679565  0.0591376349329948  0.7317357640140814
  0.6541890501976013  0.7497229576110840  0.4777317316315475
  0.4130840301513672  0.2226402759552002  0.5813995095583478
  0.0499948672950268  0.1272900998592377  0.9317445146567092
  0.1248624250292778  0.5958714485168457  0.4832156595576157
  0.2814975976943970  0.7138174772262573  0.4620043834517508
  0.9340834617614746  0.8271225690841675  0.0101483958503701
  0.9544522166252136  0.0708236843347549  0.5570845788592145
  0.4726892709732056  0.5302589535713196  0.6582037759734315
  0.2046938389539719  0.4382344186306000  0.6718136621242123
  0.6709943413734436  0.5364080071449280  0.9239121192590237
  0.3257866799831390  0.4402261376380920  0.4649563891046840
  0.9497723579406738  0.9183048009872437  0.5107203842596958
  0.7186719775199890  0.1509243100881577  0.8177861172810773
  0.6023996472358704  0.0533679351210594  0.9633323387534959
  0.6352262496948242  0.1348685473203659  0.6735559204250658
  0.2226431220769882  0.9274813532829285  0.7881953498205860
  0.3614350855350494  0.9982243776321411  0.7378397480825221
  0.6314046978950500  0.6286983489990234  0.6401484496226472
  0.4876930117607117  0.2388028949499130  0.7046393492514719
  0.4997508525848389  0.8092999458312988  0.4911514152179955
  0.2374052554368973  0.2467725872993469  0.5683087794091045
  0.5602242946624756  0.3248146176338196  0.6027728725501517
  0.6919058561325073  0.9301550388336182  0.6880000690429798
  0.4665620028972626  0.4973765015602112  0.5479994542661054
  0.1406903415918350  0.7273666858673096  0.8492257717527298
  0.0400583967566490  0.3370768725872040  0.7096494928520105
  0.3753921687602997  0.6589478850364685  0.9559126815146280
  0.4150990247726440  0.4256675839424133  0.9704387170458633
  0.7827562093734741  0.6034464240074158  0.5726244657533219
  0.4883817136287689  0.0979048907756805  0.0287744550967824
  0.0653192922472954  0.5188146829605103  0.9759080599637650
  0.5453283786773682  0.6481187939643860  0.4381300605776428
  0.8733767271041870  0.3825447559356689  0.6979812754510900
  0.4237549006938934  0.6799639463424683  0.8167229931918205
  0.8564725518226624  0.8890045285224915  0.6998894865436619
  0.8766949772834778  0.0978460013866425  0.9414701495482218
  0.1345542669296265  0.3835305869579315  0.5699645468543000
  0.0500354953110218  0.8522945642471313  0.6832077516607954
  0.4092856347560883  0.0520942434668541  0.9356972978820616
  0.4371172487735748  0.6651675701141357  0.5025175999437731
  0.2883540391921997  0.4517725408077240  0.8985315340595782
  0.5076367259025574  0.2786074280738831  0.4987761060415484
  0.8162433505058289  0.5963418483734131  0.8690526669990932
  0.0939083844423294  0.7657100558280945  0.4605704838536787
  0.1458300650119781  0.0196568295359612  0.6763622868639203
  0.9862044453620911  0.0863680317997932  0.6615328831628184
  0.6181650757789612  0.7358746528625488  0.7280805852445249
  0.5855153203010559  0.0626266673207283  0.8628511918158229
  0.7453033328056335  0.0096149751916528  0.8953434972865308
  0.4031947553157806  0.3277818262577057  0.8711699884497172
  0.9499933719635010  0.5497471094131470  0.5765605201500301
  0.1404714733362198  0.7125988006591797  0.5555964862910386
  0.8059651851654053  0.8131061792373657  0.5167703862256208
  0.6371837258338928  0.4895196855068207  0.5957327066804011
  0.6023895144462585  0.8131232261657715  0.8227191536336216
  0.3619614243507385  0.0045747132971883  0.8426918989616515
  0.7622620463371277  0.2226651459932327  0.7289407141357803
  0.7469244003295898  0.3902256190776825  0.8766734919168671
  0.4891858398914337  0.7608864903450012  0.9043240667006138
  0.2559580206871033  0.9723346233367920  0.9371423734622953
  0.3010099530220032  0.7413540482521057  0.8868194562003635
  0.0368738323450089  0.1958542019128799  0.8328549962728964
  0.7568221092224121  0.7529506683349609  0.6550009784692278
  0.1843855381011963  0.0548713766038418  0.8583297689949606
  0.1305976957082748  0.2065557539463043  0.6527903129663372
  0.9916183352470398  0.6050885915756226  0.8948611728236892
  0.8479620218276978  0.2734655439853668  0.8351479001350882
  0.1154243350028992  0.6084194779396057  0.7683199550289938
  0.9476376175880432  0.2130542397499084  0.0054833606702914
  0.9196209907531738  0.1806511878967285  0.7511174474930825
  0.4426864385604858  0.0247675608843565  0.5463953845245562
  0.4723748266696930  0.1630213409662247  0.8519293050978598
  0.4712792634963989  0.5231246948242188  0.7754025052839226
  0.3179257214069366  0.2305818796157837  0.6688619376280630
  0.0443125180900097  0.2615264654159546  0.5322614924177153
  0.3095196783542633  0.4320413470268250  0.5780605267369252
  0.7214763164520264  0.3538363277912140  0.6470966772240507
