Ta Zr O                                 
    1.000000000000000     
    15.2074090343430477    0.0000000000000000    0.0000000000000000
     0.0000000000000000   15.2074090343430477    0.0000000000000000
     0.0000000000000000    0.0000000000000000   15.2074090343430477
   Ta   Zr   O 
    40    40   180
Direct
     0.0514566600086776    0.4510967458961290    0.8516319843948177
     0.0095470198041025    0.8510929261435594    0.8671045429405344
     0.8041510667192480    0.4460960143198510    0.1638655436501953
     0.7868815656404515    0.1158206795655959    0.7541128085618773
     0.2897397911164138    0.8029988628649967    0.6073798774533172
     0.4810933245874153    0.6396243168592745    0.6260879902075054
     0.3585700944606351    0.3339694549225842    0.6368211766562660
     0.2676533803607358    0.5803508281875717    0.5260345734154106
     0.0461639076228130    0.0434228292480461    0.9992014256487664
     0.5633102390826953    0.6650888263961403    0.3921503036686570
     0.0910108551062401    0.9618568703063852    0.5114502061489259
     0.5083957116152912    0.2747917591292418    0.3170463908986490
     0.2475713048869115    0.7848284859714647    0.8537870311983170
     0.8854255060412047    0.8966520756967501    0.2719116955473991
     0.3969007783908202    0.4833528176016653    0.9420165881344046
     0.4418954343892721    0.7203018473808415    0.9801377711259289
     0.7281291916324032    0.3447154079520957    0.7818595278402360
     0.8864602949317711    0.2108033411640883    0.1397324228778414
     0.2710976366979780    0.9280521485203271    0.0096504258966382
     0.0978127943279094    0.4772124691612972    0.4530260886800516
     0.5635047509810668    0.0214636026758987    0.7452348089520634
     0.5877898702574225    0.9420478863985657    0.5036581805093657
     0.0200915998661079    0.5069664937755310    0.2616071515876353
     0.9573688830296760    0.7569968341658695    0.0876138056909378
     0.4445961889107983    0.0908747941299962    0.1693806181963650
     0.8944180672898265    0.5491717408681730    0.9564173421885542
     0.7733898336097392    0.8507549731143207    0.9581592746457503
     0.6479115802567209    0.5474135277192670    0.8971293606472932
     0.7786216778432482    0.2886568816231075    0.3092945029151539
     0.6783898641825024    0.7321958643034622    0.5895773001948368
     0.3204598713390557    0.3771381813480449    0.1969955635224421
     0.6190488313784562    0.6110540162066493    0.1410212764800611
     0.2309714448336536    0.5426923890096290    0.7699751443705886
     0.1347540026946344    0.2535048765573236    0.0368906089333601
     0.3179724694401680    0.9756566221593805    0.7363544641687491
     0.1683181539515529    0.5027839441250853    0.0587034196006830
     0.7977539525341779    0.0951873879858169    0.9911757490401050
     0.6852991452786708    0.1195005372329889    0.4364444125270415
     0.0876379978379398    0.7488736291498299    0.2866258271241016
     0.0239701890057335    0.2541125184622334    0.7656625231387463
     0.9932105542415066    0.6424478902227851    0.7404503849060254
     0.0914889975681507    0.7380484344580690    0.5366142089840409
     0.4401681412474613    0.7119685486535134    0.2007098950889378
     0.8503536699671708    0.8193358866332635    0.7452863676791527
     0.9115498133728628    0.2962041690759339    0.9389557179202771
     0.6732079439492873    0.8418680076747574    0.2613094004123982
     0.1044635516896534    0.2838639539641329    0.5427185898042862
     0.9601194608485878    0.0103213374454999    0.6851547344037136
     0.5566736121675211    0.8906385023460540    0.0730905228356773
     0.5126211532929761    0.1728308949673561    0.5405595869189451
     0.2225452315184409    0.7346978134635146    0.1091025530690577
     0.1598569999905597    0.1015400067104140    0.7082489398952296
     0.2860804669050684    0.3414207243750746    0.4123447990279988
     0.6903828884216870    0.3111855199364071    0.5619305469644998
     0.3454125923848597    0.9623101517380690    0.4823351289729696
     0.2764406209173922    0.7780301629321094    0.3585662243643709
     0.2339055985506885    0.1656943847469054    0.2676464202232203
     0.2595399434588639    0.3113802640534473    0.8270897324470179
     0.5557802691484542    0.4594255542381177    0.7295599754417880
     0.8788761276974428    0.7539197389732933    0.4213597921404296
     0.2805148942604289    0.1503951833969124    0.5279832204609167
     0.2889334859877177    0.9485388705619164    0.2207442315251755
     0.5765679261410382    0.3639937384187045    0.1238160856002615
     0.4732584310635658    0.8810025796715091    0.3181507789649163
     0.0530598300813967    0.0588960641067819    0.2579156768576522
     0.6994378824231281    0.0627539632142154    0.1871132058593137
     0.5239014507444477    0.4353667409544505    0.4921960701958238
     0.7570670284860658    0.4986848045757290    0.4192337510856748
     0.8598854823026886    0.6209411054548866    0.5750349162600989
     0.2600711635077425    0.5627795033993016    0.2948639816258700
     0.8995057271457725    0.1947463046487113    0.5380541614570313
     0.0220507131582346    0.2723457307499395    0.3331148635092964
     0.8444039249844336    0.9760070298695901    0.5118149971155872
     0.6153664295802377    0.7777843007266189    0.7987351796746969
     0.4951941103505665    0.2343245240829624    0.7795417799137977
     0.9170599040062721    0.4132657888180147    0.6275631296055688
     0.5548048025817167    0.1263629154050075    0.9831083436188792
     0.4175753049446828    0.2813425538731518    0.0031358578507157
     0.4780147209114414    0.5015034477204706    0.2836151677900988
     0.8052769290800610    0.6517514496562531    0.2478407107827204
     0.9697398498789835    0.1791953321751747    0.2291850822513692
     0.6068369408599882    0.2990968483831110    0.2356356910271727
     0.5484689534821117    0.3072673613975916    0.5371259163000525
     0.4623908605007770    0.7426830380264278    0.3541002607156917
     0.8603301124016627    0.3314370208930633    0.1847078286851937
     0.3503462486572538    0.7252005034777794    0.8989210245189400
     0.8274874448334023    0.2264975158455590    0.0224166251853862
     0.3841080319580413    0.5945756779109457    0.2420852396577810
     0.0395724824038425    0.6352193784596297    0.2923564057687005
     0.5678430458642422    0.0973650007017116    0.1791014436157565
     0.6797069098596714    0.1126914521176886    0.0453810122876696
     0.8946845069242410    0.5168223405419503    0.2366264892296534
     0.0497693943769609    0.3145563416553864    0.8843044909588419
     0.5256018538022472    0.7536142794121775    0.8960797969453862
     0.3250163372264435    0.3036800034887214    0.1007555730551504
     0.0752438988545301    0.7563455154610021    0.1542287678803720
     0.5278908371124635    0.0048482466435960    0.0201995487636031
     0.5622389486400377    0.4958378226881794    0.1697307271166234
     0.0992859035441487    0.5473365714604942    0.7706131597813628
     0.7937992903352293    0.7445762968911041    0.5196260799783190
     0.8336954219190218    0.3060388542819159    0.5541034688150746
     0.8890589773816066    0.2779421962631733    0.3595961375360411
     0.1725024712524706    0.9942691341905980    0.9975534210581025
     0.9402434409568107    0.5451773986815281    0.6552632516453646
     0.1875722855831382    0.8468515381698641    0.2852651411737787
     0.4672616016031062    0.3619975702317120    0.7058375191457799
     0.9511428369308133    0.7393319724876909    0.8224012336129077
     0.2594506858866943    0.1944936747487914    0.4025139778086314
     0.8253793087588495    0.3976995291503777    0.7133244556949965
     0.1803557772850649    0.6272687548858893    0.0522200531305035
     0.9393140506160655    0.0037063397760129    0.2916501745172926
     0.5580916961295177    0.9727820706938253    0.6194772396726292
     0.2224451493740826    0.8005609109589524    0.9812758992431473
     0.6017501547349674    0.9130616554678640    0.3490733543883299
     0.1454023400211789    0.7425955033150085    0.4033560037028426
     0.6469288646947891    0.9405688735011144    0.1588584234479888
     0.1780315638187761    0.2001367665963903    0.1377413971365278
     0.1235544505496474    0.8056119383313589    0.8382096461893922
     0.2388960158163613    0.4676165470327600    0.4699173597196645
     0.6408223854494559    0.5712008135913308    0.0230636401487056
     0.8646597765407450    0.1181481722747746    0.6429837705245707
     0.9814481538720579    0.8063929198762092    0.3228043277410592
     0.7404700099615948    0.7940743707015958    0.8460943245977067
     0.2885177240746007    0.0742898837991868    0.6571161990200070
     0.1819511507151355    0.4272449842241848    0.8361452652618074
     0.9168434715830184    0.2262521179596475    0.8245368665358987
     0.7711899441509192    0.2032242921838540    0.2188340389681901
     0.3882852797977844    0.5912707180611808    0.5489803359385700
     0.0921617652877432    0.5059202671723794    0.9599966226201807
     0.2305009685385894    0.6646180237203068    0.7982146062031085
     0.2496716994484342    0.2994171565047427    0.5428429161964647
     0.3193550275735668    0.8188568823265584    0.4816988876035308
     0.6443762821313221    0.8336905071442668    0.5215325716693806
     0.6820967415502422    0.4694910659611115    0.8006848787719755
     0.5852706648148217    0.9092181241269891    0.7912223105288178
     0.5514259236742954    0.2621769973297851    0.0401192376525555
     0.2696939042063607    0.3856819862316460    0.7042751229897546
     0.5342049425475708    0.4879714355044275    0.8718213713785599
     0.7104118850951390    0.9963431450314967    0.4879293839967276
     0.0121795125797092    0.2229412444388783    0.4672859417892115
     0.3374194374378340    0.9988567948138962    0.0900662676699781
     0.2261522414218228    0.2581077395981629    0.9486669397348363
     0.2293429127706648    0.6966709110722318    0.5697925943484569
     0.0524693536191435    0.4122577071929150    0.5558228276934553
     0.3345470129109745    0.0838783958970949    0.2428837025819630
     0.9586140060368329    0.5524760731511223    0.8447483170680942
     0.6715929452729904    0.4196170191343941    0.4831707275412380
     0.5246034858341295    0.1472345410222995    0.6791888792132819
     0.9034068834986341    0.6830437774835799    0.1754727089944376
     0.8723991488597131    0.0321448712724662    0.7847946032091906
     0.2494923381594567    0.5459384205980057    0.6490899674770998
     0.0781193580086934    0.5187078837823896    0.1523640867540316
     0.7602984265657921    0.1350125348721181    0.8777750394441375
     0.4445048578182872    0.2021789273085474    0.2350933653771183
     0.7224362543009933    0.7949275175913639    0.6872811957959676
     0.0797027139839916    0.9988855356441355    0.3964673763838353
     0.9867472020506767    0.2573203456930975    0.0596649292581236
     0.5683811660326127    0.0661653766157670    0.4676087974452807
     0.9611044012562817    0.6857161358087689    0.5011437486301303
     0.8745945903360055    0.8738331889208509    0.8769795063878599
     0.5742371938651041    0.7230443024722979    0.6784122595057547
     0.8195963944264865    0.1134007069340586    0.4664604792209907
     0.5347000257665678    0.3993425654620373    0.3587005793311058
     0.8361218815500452    0.7848484805278237    0.0378557913924447
     0.7809280846152923    0.5651994847069924    0.9176771013433945
     0.4481401899138510    0.3794006410138202    0.2101625826981010
     0.0113562925277993    0.8169217305821644    0.9895568765523985
     0.1545575351537987    0.2347660577707185    0.7628393649151612
     0.0282835468874684    0.3790509951777145    0.2612756553890952
     0.4780558584649464    0.5770701465133803    0.7296705445744521
     0.0240665081313857    0.8559343004250335    0.5060822086104926
     0.0399593668657519    0.0341199942955284    0.1237890263786933
     0.9425643243631805    0.4259595086145503    0.9339667408294383
     0.4043101211553066    0.2949737065674753    0.3913390754552083
     0.9271951052060398    0.8626936990394485    0.1603321404345802
     0.7209910315148419    0.2500636329397854    0.4104509065504310
     0.4316882588606009    0.0080256590187655    0.7662170450530549
     0.4742795651317502    0.9099137045244821    0.4573646487177146
     0.1738089204599597    0.8543816500412775    0.5693070042129484
     0.8073872437579852    0.7836048134724799    0.2947698865167812
     0.2540696930925527    0.3053984326487302    0.2746498904725169
     0.3499561183861634    0.7018521643195947    0.0958348686454701
     0.1835201219021030    0.0327619893594719    0.2430658601233057
     0.6925566928200823    0.7103919787788309    0.1823564841736567
     0.6902528421857611    0.0892470346932000    0.3183728021741361
     0.9744981433928509    0.8878091860288151    0.7413006477952689
     0.6538412103520838    0.3820997577224522    0.6640505533757273
     0.2214287437749177    0.0259626802988338    0.7978321690039510
     0.0273823772249500    0.1256029637911617    0.7387014816450034
     0.4393898814891010    0.8342435092573376    0.0391473789132765
     0.8518916315989506    0.9230406819113660    0.6311297450585577
     0.2747607957865060    0.8439006504536102    0.7356939840153719
     0.5630303925917242    0.2019552159547306    0.3973169620638747
     0.1549042886400910    0.1665830352500537    0.5856571931207648
     0.8596016528918137    0.4843155967907824    0.0632753031744500
     0.7304790870734749    0.5509380795558909    0.1906806826051147
     0.9932386092353288    0.2667887825537077    0.6347936418032726
     0.2855217934841198    0.6369909018495511    0.4049177224390528
     0.3362117897428523    0.9248254918458053    0.3516314626465871
     0.6614788676153638    0.5763343448950961    0.3919546736381880
     0.6471756629465284    0.7460161668174246    0.3574505405328872
     0.5487842824520242    0.6277747070634137    0.2585953906576662
     0.2874441402479623    0.4865193912473061    0.0021508582396219
     0.7893343841666364    0.3371016958668696    0.8877738230109351
     0.1418701906954722    0.3735270102029064    0.0654660990857935
     0.6526608961697231    0.8391099809788877    0.9984938962664741
     0.3980255114353769    0.0824812991160094    0.4956711222343760
     0.7269430494014132    0.6162765222512283    0.5977710208819913
     0.6570772102293434    0.1801170994609956    0.5531602342579018
     0.2155677319108484    0.6820267296883743    0.2435685943123803
     0.5411873584375795    0.8167104535679430    0.2098045760923152
     0.7723218307561728    0.9451183963916621    0.2510736371686529
     0.9450219148102734    0.6470175580920866    0.0118026804393394
     0.5645237861563872    0.6785899411741751    0.5212856675075759
     0.5460731800725080    0.5152733454562674    0.5983857374798728
     0.0703471010849322    0.7054583236012496    0.6595223826052109
     0.9239834702835362    0.0779916598148948    0.9809122881346352
     0.4598119000440749    0.2020787755631928    0.9020739141097543
     0.3488783629874400    0.9216845975692153    0.6151754812671558
     0.1245490864698955    0.5867960313896560    0.5061462713477242
     0.8306376233444180    0.0915082617848989    0.1258888664310182
     0.6023273149372235    0.3077392218065291    0.8093286838884318
     0.0888249703205860    0.1515203832626172    0.9663411747107817
     0.4313612483337529    0.1472229143928888    0.0570486704577263
     0.9912108957522121    0.4910599887387238    0.3955983474022552
     0.2350388633320669    0.8726109873617304    0.1217728723758963
     0.6383347828420922    0.6448234372960538    0.8317910940887625
     0.4476244589805931    0.9669109302830886    0.2163827286366223
     0.5718577828527207    0.0969021783993304    0.8474447342263499
     0.4636593714983346    0.4081424603022213    0.0291706562319545
     0.5264882704798152    0.6860829345937806    0.0936924040796484
     0.9709423463964759    0.0276196845052466    0.5396854866971786
     0.1268993975102182    0.3409881250212334    0.4172782627673942
     0.3972718213940563    0.4064169831977050    0.5409653691690502
     0.6901816455000328    0.0486828622246841    0.7213947323123098
     0.1447037797527424    0.5016955595281745    0.3273687600312111
     0.0362586888782947    0.9704237339690026    0.8944560056876378
     0.3378320273057832    0.5173921582034371    0.8316054254530911
     0.0047592130206244    0.3874103094396181    0.7436794526579578
     0.1080921879145618    0.1716262414497230    0.3129204387042914
     0.7631887406600252    0.4152896598722135    0.3071585954382906
     0.7040332059361127    0.3940599197590911    0.1088557849148101
     0.2538086032260218    0.4798182259380342    0.1714979719129548
     0.8606457566130230    0.8915905976444143    0.4140377791490503
     0.3935769051699805    0.7336452694479496    0.6395034967369976
     0.0966050187634403    0.0009089843593240    0.6437795729911181
     0.2250025183880216    0.0179637319161461    0.4972101409334858
     0.3564789122138654    0.8088447552047427    0.2433815689605079
     0.8327205267396767    0.6277846424362074    0.3783404093817308
     0.3394536673871429    0.4484836255158491    0.3208882042370118
     0.4902527347988472    0.5509265172372517    0.4081071507272054
     0.7493804328111580    0.2361477943868811    0.7182785246044200
     0.4422917143413826    0.5918300505254912    0.9792332337146337
     0.8448542650219730    0.4922764555518481    0.5243627276809314
     0.8787403402714984    0.7036381967924400    0.6814164124194927
     0.3896498633652147    0.2214952907125465    0.5807043791394704
     0.3709407400460130    0.3557738233978472    0.8967725508594006
     0.3079059137697623    0.9041690914146971    0.8855340939799736
     0.3554878438762723    0.2482722499651457    0.7512375112963120
     0.7741719221525230    0.9720850096287743    0.9861593243400686
 
  0.00000000E+00  0.00000000E+00  0.00000000E+00
  0.00000000E+00  0.00000000E+00  0.00000000E+00
  0.00000000E+00  0.00000000E+00  0.00000000E+00
  0.00000000E+00  0.00000000E+00  0.00000000E+00
  0.00000000E+00  0.00000000E+00  0.00000000E+00
  0.00000000E+00  0.00000000E+00  0.00000000E+00
  0.00000000E+00  0.00000000E+00  0.00000000E+00
  0.00000000E+00  0.00000000E+00  0.00000000E+00
  0.00000000E+00  0.00000000E+00  0.00000000E+00
  0.00000000E+00  0.00000000E+00  0.00000000E+00
  0.00000000E+00  0.00000000E+00  0.00000000E+00
  0.00000000E+00  0.00000000E+00  0.00000000E+00
  0.00000000E+00  0.00000000E+00  0.00000000E+00
  0.00000000E+00  0.00000000E+00  0.00000000E+00
  0.00000000E+00  0.00000000E+00  0.00000000E+00
  0.00000000E+00  0.00000000E+00  0.00000000E+00
  0.00000000E+00  0.00000000E+00  0.00000000E+00
  0.00000000E+00  0.00000000E+00  0.00000000E+00
  0.00000000E+00  0.00000000E+00  0.00000000E+00
  0.00000000E+00  0.00000000E+00  0.00000000E+00
  0.00000000E+00  0.00000000E+00  0.00000000E+00
  0.00000000E+00  0.00000000E+00  0.00000000E+00
  0.00000000E+00  0.00000000E+00  0.00000000E+00
  0.00000000E+00  0.00000000E+00  0.00000000E+00
  0.00000000E+00  0.00000000E+00  0.00000000E+00
  0.00000000E+00  0.00000000E+00  0.00000000E+00
  0.00000000E+00  0.00000000E+00  0.00000000E+00
  0.00000000E+00  0.00000000E+00  0.00000000E+00
  0.00000000E+00  0.00000000E+00  0.00000000E+00
  0.00000000E+00  0.00000000E+00  0.00000000E+00
  0.00000000E+00  0.00000000E+00  0.00000000E+00
  0.00000000E+00  0.00000000E+00  0.00000000E+00
  0.00000000E+00  0.00000000E+00  0.00000000E+00
  0.00000000E+00  0.00000000E+00  0.00000000E+00
  0.00000000E+00  0.00000000E+00  0.00000000E+00
  0.00000000E+00  0.00000000E+00  0.00000000E+00
  0.00000000E+00  0.00000000E+00  0.00000000E+00
  0.00000000E+00  0.00000000E+00  0.00000000E+00
  0.00000000E+00  0.00000000E+00  0.00000000E+00
  0.00000000E+00  0.00000000E+00  0.00000000E+00
  0.00000000E+00  0.00000000E+00  0.00000000E+00
  0.00000000E+00  0.00000000E+00  0.00000000E+00
  0.00000000E+00  0.00000000E+00  0.00000000E+00
  0.00000000E+00  0.00000000E+00  0.00000000E+00
  0.00000000E+00  0.00000000E+00  0.00000000E+00
  0.00000000E+00  0.00000000E+00  0.00000000E+00
  0.00000000E+00  0.00000000E+00  0.00000000E+00
  0.00000000E+00  0.00000000E+00  0.00000000E+00
  0.00000000E+00  0.00000000E+00  0.00000000E+00
  0.00000000E+00  0.00000000E+00  0.00000000E+00
  0.00000000E+00  0.00000000E+00  0.00000000E+00
  0.00000000E+00  0.00000000E+00  0.00000000E+00
  0.00000000E+00  0.00000000E+00  0.00000000E+00
  0.00000000E+00  0.00000000E+00  0.00000000E+00
  0.00000000E+00  0.00000000E+00  0.00000000E+00
  0.00000000E+00  0.00000000E+00  0.00000000E+00
  0.00000000E+00  0.00000000E+00  0.00000000E+00
  0.00000000E+00  0.00000000E+00  0.00000000E+00
  0.00000000E+00  0.00000000E+00  0.00000000E+00
  0.00000000E+00  0.00000000E+00  0.00000000E+00
  0.00000000E+00  0.00000000E+00  0.00000000E+00
  0.00000000E+00  0.00000000E+00  0.00000000E+00
  0.00000000E+00  0.00000000E+00  0.00000000E+00
  0.00000000E+00  0.00000000E+00  0.00000000E+00
  0.00000000E+00  0.00000000E+00  0.00000000E+00
  0.00000000E+00  0.00000000E+00  0.00000000E+00
  0.00000000E+00  0.00000000E+00  0.00000000E+00
  0.00000000E+00  0.00000000E+00  0.00000000E+00
  0.00000000E+00  0.00000000E+00  0.00000000E+00
  0.00000000E+00  0.00000000E+00  0.00000000E+00
  0.00000000E+00  0.00000000E+00  0.00000000E+00
  0.00000000E+00  0.00000000E+00  0.00000000E+00
  0.00000000E+00  0.00000000E+00  0.00000000E+00
  0.00000000E+00  0.00000000E+00  0.00000000E+00
  0.00000000E+00  0.00000000E+00  0.00000000E+00
  0.00000000E+00  0.00000000E+00  0.00000000E+00
  0.00000000E+00  0.00000000E+00  0.00000000E+00
  0.00000000E+00  0.00000000E+00  0.00000000E+00
  0.00000000E+00  0.00000000E+00  0.00000000E+00
  0.00000000E+00  0.00000000E+00  0.00000000E+00
  0.00000000E+00  0.00000000E+00  0.00000000E+00
  0.00000000E+00  0.00000000E+00  0.00000000E+00
  0.00000000E+00  0.00000000E+00  0.00000000E+00
  0.00000000E+00  0.00000000E+00  0.00000000E+00
  0.00000000E+00  0.00000000E+00  0.00000000E+00
  0.00000000E+00  0.00000000E+00  0.00000000E+00
  0.00000000E+00  0.00000000E+00  0.00000000E+00
  0.00000000E+00  0.00000000E+00  0.00000000E+00
  0.00000000E+00  0.00000000E+00  0.00000000E+00
  0.00000000E+00  0.00000000E+00  0.00000000E+00
  0.00000000E+00  0.00000000E+00  0.00000000E+00
  0.00000000E+00  0.00000000E+00  0.00000000E+00
  0.00000000E+00  0.00000000E+00  0.00000000E+00
  0.00000000E+00  0.00000000E+00  0.00000000E+00
  0.00000000E+00  0.00000000E+00  0.00000000E+00
  0.00000000E+00  0.00000000E+00  0.00000000E+00
  0.00000000E+00  0.00000000E+00  0.00000000E+00
  0.00000000E+00  0.00000000E+00  0.00000000E+00
  0.00000000E+00  0.00000000E+00  0.00000000E+00
  0.00000000E+00  0.00000000E+00  0.00000000E+00
  0.00000000E+00  0.00000000E+00  0.00000000E+00
  0.00000000E+00  0.00000000E+00  0.00000000E+00
  0.00000000E+00  0.00000000E+00  0.00000000E+00
  0.00000000E+00  0.00000000E+00  0.00000000E+00
  0.00000000E+00  0.00000000E+00  0.00000000E+00
  0.00000000E+00  0.00000000E+00  0.00000000E+00
  0.00000000E+00  0.00000000E+00  0.00000000E+00
  0.00000000E+00  0.00000000E+00  0.00000000E+00
  0.00000000E+00  0.00000000E+00  0.00000000E+00
  0.00000000E+00  0.00000000E+00  0.00000000E+00
  0.00000000E+00  0.00000000E+00  0.00000000E+00
  0.00000000E+00  0.00000000E+00  0.00000000E+00
  0.00000000E+00  0.00000000E+00  0.00000000E+00
  0.00000000E+00  0.00000000E+00  0.00000000E+00
  0.00000000E+00  0.00000000E+00  0.00000000E+00
  0.00000000E+00  0.00000000E+00  0.00000000E+00
  0.00000000E+00  0.00000000E+00  0.00000000E+00
  0.00000000E+00  0.00000000E+00  0.00000000E+00
  0.00000000E+00  0.00000000E+00  0.00000000E+00
  0.00000000E+00  0.00000000E+00  0.00000000E+00
  0.00000000E+00  0.00000000E+00  0.00000000E+00
  0.00000000E+00  0.00000000E+00  0.00000000E+00
  0.00000000E+00  0.00000000E+00  0.00000000E+00
  0.00000000E+00  0.00000000E+00  0.00000000E+00
  0.00000000E+00  0.00000000E+00  0.00000000E+00
  0.00000000E+00  0.00000000E+00  0.00000000E+00
  0.00000000E+00  0.00000000E+00  0.00000000E+00
  0.00000000E+00  0.00000000E+00  0.00000000E+00
  0.00000000E+00  0.00000000E+00  0.00000000E+00
  0.00000000E+00  0.00000000E+00  0.00000000E+00
  0.00000000E+00  0.00000000E+00  0.00000000E+00
  0.00000000E+00  0.00000000E+00  0.00000000E+00
  0.00000000E+00  0.00000000E+00  0.00000000E+00
  0.00000000E+00  0.00000000E+00  0.00000000E+00
  0.00000000E+00  0.00000000E+00  0.00000000E+00
  0.00000000E+00  0.00000000E+00  0.00000000E+00
  0.00000000E+00  0.00000000E+00  0.00000000E+00
  0.00000000E+00  0.00000000E+00  0.00000000E+00
  0.00000000E+00  0.00000000E+00  0.00000000E+00
  0.00000000E+00  0.00000000E+00  0.00000000E+00
  0.00000000E+00  0.00000000E+00  0.00000000E+00
  0.00000000E+00  0.00000000E+00  0.00000000E+00
  0.00000000E+00  0.00000000E+00  0.00000000E+00
  0.00000000E+00  0.00000000E+00  0.00000000E+00
  0.00000000E+00  0.00000000E+00  0.00000000E+00
  0.00000000E+00  0.00000000E+00  0.00000000E+00
  0.00000000E+00  0.00000000E+00  0.00000000E+00
  0.00000000E+00  0.00000000E+00  0.00000000E+00
  0.00000000E+00  0.00000000E+00  0.00000000E+00
  0.00000000E+00  0.00000000E+00  0.00000000E+00
  0.00000000E+00  0.00000000E+00  0.00000000E+00
  0.00000000E+00  0.00000000E+00  0.00000000E+00
  0.00000000E+00  0.00000000E+00  0.00000000E+00
  0.00000000E+00  0.00000000E+00  0.00000000E+00
  0.00000000E+00  0.00000000E+00  0.00000000E+00
  0.00000000E+00  0.00000000E+00  0.00000000E+00
  0.00000000E+00  0.00000000E+00  0.00000000E+00
  0.00000000E+00  0.00000000E+00  0.00000000E+00
  0.00000000E+00  0.00000000E+00  0.00000000E+00
  0.00000000E+00  0.00000000E+00  0.00000000E+00
  0.00000000E+00  0.00000000E+00  0.00000000E+00
  0.00000000E+00  0.00000000E+00  0.00000000E+00
  0.00000000E+00  0.00000000E+00  0.00000000E+00
  0.00000000E+00  0.00000000E+00  0.00000000E+00
  0.00000000E+00  0.00000000E+00  0.00000000E+00
  0.00000000E+00  0.00000000E+00  0.00000000E+00
  0.00000000E+00  0.00000000E+00  0.00000000E+00
  0.00000000E+00  0.00000000E+00  0.00000000E+00
  0.00000000E+00  0.00000000E+00  0.00000000E+00
  0.00000000E+00  0.00000000E+00  0.00000000E+00
  0.00000000E+00  0.00000000E+00  0.00000000E+00
  0.00000000E+00  0.00000000E+00  0.00000000E+00
  0.00000000E+00  0.00000000E+00  0.00000000E+00
  0.00000000E+00  0.00000000E+00  0.00000000E+00
  0.00000000E+00  0.00000000E+00  0.00000000E+00
  0.00000000E+00  0.00000000E+00  0.00000000E+00
  0.00000000E+00  0.00000000E+00  0.00000000E+00
  0.00000000E+00  0.00000000E+00  0.00000000E+00
  0.00000000E+00  0.00000000E+00  0.00000000E+00
  0.00000000E+00  0.00000000E+00  0.00000000E+00
  0.00000000E+00  0.00000000E+00  0.00000000E+00
  0.00000000E+00  0.00000000E+00  0.00000000E+00
  0.00000000E+00  0.00000000E+00  0.00000000E+00
  0.00000000E+00  0.00000000E+00  0.00000000E+00
  0.00000000E+00  0.00000000E+00  0.00000000E+00
  0.00000000E+00  0.00000000E+00  0.00000000E+00
  0.00000000E+00  0.00000000E+00  0.00000000E+00
  0.00000000E+00  0.00000000E+00  0.00000000E+00
  0.00000000E+00  0.00000000E+00  0.00000000E+00
  0.00000000E+00  0.00000000E+00  0.00000000E+00
  0.00000000E+00  0.00000000E+00  0.00000000E+00
  0.00000000E+00  0.00000000E+00  0.00000000E+00
  0.00000000E+00  0.00000000E+00  0.00000000E+00
  0.00000000E+00  0.00000000E+00  0.00000000E+00
  0.00000000E+00  0.00000000E+00  0.00000000E+00
  0.00000000E+00  0.00000000E+00  0.00000000E+00
  0.00000000E+00  0.00000000E+00  0.00000000E+00
  0.00000000E+00  0.00000000E+00  0.00000000E+00
  0.00000000E+00  0.00000000E+00  0.00000000E+00
  0.00000000E+00  0.00000000E+00  0.00000000E+00
  0.00000000E+00  0.00000000E+00  0.00000000E+00
  0.00000000E+00  0.00000000E+00  0.00000000E+00
  0.00000000E+00  0.00000000E+00  0.00000000E+00
  0.00000000E+00  0.00000000E+00  0.00000000E+00
  0.00000000E+00  0.00000000E+00  0.00000000E+00
  0.00000000E+00  0.00000000E+00  0.00000000E+00
  0.00000000E+00  0.00000000E+00  0.00000000E+00
  0.00000000E+00  0.00000000E+00  0.00000000E+00
  0.00000000E+00  0.00000000E+00  0.00000000E+00
  0.00000000E+00  0.00000000E+00  0.00000000E+00
  0.00000000E+00  0.00000000E+00  0.00000000E+00
  0.00000000E+00  0.00000000E+00  0.00000000E+00
  0.00000000E+00  0.00000000E+00  0.00000000E+00
  0.00000000E+00  0.00000000E+00  0.00000000E+00
  0.00000000E+00  0.00000000E+00  0.00000000E+00
  0.00000000E+00  0.00000000E+00  0.00000000E+00
  0.00000000E+00  0.00000000E+00  0.00000000E+00
  0.00000000E+00  0.00000000E+00  0.00000000E+00
  0.00000000E+00  0.00000000E+00  0.00000000E+00
  0.00000000E+00  0.00000000E+00  0.00000000E+00
  0.00000000E+00  0.00000000E+00  0.00000000E+00
  0.00000000E+00  0.00000000E+00  0.00000000E+00
  0.00000000E+00  0.00000000E+00  0.00000000E+00
  0.00000000E+00  0.00000000E+00  0.00000000E+00
  0.00000000E+00  0.00000000E+00  0.00000000E+00
  0.00000000E+00  0.00000000E+00  0.00000000E+00
  0.00000000E+00  0.00000000E+00  0.00000000E+00
  0.00000000E+00  0.00000000E+00  0.00000000E+00
  0.00000000E+00  0.00000000E+00  0.00000000E+00
  0.00000000E+00  0.00000000E+00  0.00000000E+00
  0.00000000E+00  0.00000000E+00  0.00000000E+00
  0.00000000E+00  0.00000000E+00  0.00000000E+00
  0.00000000E+00  0.00000000E+00  0.00000000E+00
  0.00000000E+00  0.00000000E+00  0.00000000E+00
  0.00000000E+00  0.00000000E+00  0.00000000E+00
  0.00000000E+00  0.00000000E+00  0.00000000E+00
  0.00000000E+00  0.00000000E+00  0.00000000E+00
  0.00000000E+00  0.00000000E+00  0.00000000E+00
  0.00000000E+00  0.00000000E+00  0.00000000E+00
  0.00000000E+00  0.00000000E+00  0.00000000E+00
  0.00000000E+00  0.00000000E+00  0.00000000E+00
  0.00000000E+00  0.00000000E+00  0.00000000E+00
  0.00000000E+00  0.00000000E+00  0.00000000E+00
  0.00000000E+00  0.00000000E+00  0.00000000E+00
  0.00000000E+00  0.00000000E+00  0.00000000E+00
  0.00000000E+00  0.00000000E+00  0.00000000E+00
  0.00000000E+00  0.00000000E+00  0.00000000E+00
  0.00000000E+00  0.00000000E+00  0.00000000E+00
  0.00000000E+00  0.00000000E+00  0.00000000E+00
  0.00000000E+00  0.00000000E+00  0.00000000E+00
  0.00000000E+00  0.00000000E+00  0.00000000E+00
  0.00000000E+00  0.00000000E+00  0.00000000E+00
  0.00000000E+00  0.00000000E+00  0.00000000E+00
  0.00000000E+00  0.00000000E+00  0.00000000E+00
  0.00000000E+00  0.00000000E+00  0.00000000E+00
  0.00000000E+00  0.00000000E+00  0.00000000E+00
  0.00000000E+00  0.00000000E+00  0.00000000E+00
  0.00000000E+00  0.00000000E+00  0.00000000E+00
  0.00000000E+00  0.00000000E+00  0.00000000E+00
  0.00000000E+00  0.00000000E+00  0.00000000E+00
